    1C
    1UUSER                                                              
    1UDATE              27.june.2016                                    
    1UTIME              17:11:15                                        
    1UHOST                                                              
    1UPGM               CalculiX                                        
    1UDIR                                                               
    1UDBN                                                               
    1UMAT    1EL                                                        
    2C                          2060                                     1
 -1         3 0.00000E+00 0.00000E+00-1.50000E+00
 -1         4 0.00000E+00 0.00000E+00 0.00000E+00
 -1         6 1.00000E+00 0.00000E+00-1.50000E+00
 -1         8 1.00000E+00 0.00000E+00 0.00000E+00
 -1        12 1.00000E+00 8.00000E+00 0.00000E+00
 -1        14 0.00000E+00 8.00000E+00 0.00000E+00
 -1        18 0.00000E+00 8.00000E+00-1.50000E+00
 -1        22 1.00000E+00 8.00000E+00-1.50000E+00
 -1        28 0.00000E+00 0.00000E+00-1.31250E+00
 -1        29 0.00000E+00 0.00000E+00-1.12500E+00
 -1        30 0.00000E+00 0.00000E+00-9.37500E-01
 -1        31 0.00000E+00 0.00000E+00-7.50000E-01
 -1        32 0.00000E+00 0.00000E+00-5.62500E-01
 -1        33 0.00000E+00 0.00000E+00-3.75000E-01
 -1        34 0.00000E+00 0.00000E+00-1.87500E-01
 -1        35 8.33333E-01 0.00000E+00-1.50000E+00
 -1        36 6.66667E-01 0.00000E+00-1.50000E+00
 -1        37 5.00000E-01 0.00000E+00-1.50000E+00
 -1        38 3.33333E-01 0.00000E+00-1.50000E+00
 -1        39 1.66667E-01 0.00000E+00-1.50000E+00
 -1        40 1.00000E+00 0.00000E+00-1.87500E-01
 -1        41 1.00000E+00 0.00000E+00-3.75000E-01
 -1        42 1.00000E+00 0.00000E+00-5.62500E-01
 -1        43 1.00000E+00 0.00000E+00-7.50000E-01
 -1        44 1.00000E+00 0.00000E+00-9.37500E-01
 -1        45 1.00000E+00 0.00000E+00-1.12500E+00
 -1        46 1.00000E+00 0.00000E+00-1.31250E+00
 -1        47 1.66667E-01 0.00000E+00 0.00000E+00
 -1        48 3.33333E-01 0.00000E+00 0.00000E+00
 -1        49 5.00000E-01 0.00000E+00 0.00000E+00
 -1        50 6.66667E-01 0.00000E+00 0.00000E+00
 -1        51 8.33333E-01 0.00000E+00 0.00000E+00
 -1        52 1.00000E+00 1.81818E-01 0.00000E+00
 -1        53 1.00000E+00 3.63636E-01 0.00000E+00
 -1        54 1.00000E+00 5.45455E-01 0.00000E+00
 -1        55 1.00000E+00 7.27273E-01 0.00000E+00
 -1        56 1.00000E+00 9.09091E-01 0.00000E+00
 -1        57 1.00000E+00 1.09091E+00 0.00000E+00
 -1        58 1.00000E+00 1.27273E+00 0.00000E+00
 -1        59 1.00000E+00 1.45455E+00 0.00000E+00
 -1        60 1.00000E+00 1.63636E+00 0.00000E+00
 -1        61 1.00000E+00 1.81818E+00 0.00000E+00
 -1        62 1.00000E+00 2.00000E+00 0.00000E+00
 -1        63 1.00000E+00 2.18182E+00 0.00000E+00
 -1        64 1.00000E+00 2.36364E+00 0.00000E+00
 -1        65 1.00000E+00 2.54545E+00 0.00000E+00
 -1        66 1.00000E+00 2.72727E+00 0.00000E+00
 -1        67 1.00000E+00 2.90909E+00 0.00000E+00
 -1        68 1.00000E+00 3.09091E+00 0.00000E+00
 -1        69 1.00000E+00 3.27273E+00 0.00000E+00
 -1        70 1.00000E+00 3.45455E+00 0.00000E+00
 -1        71 1.00000E+00 3.63636E+00 0.00000E+00
 -1        72 1.00000E+00 3.81818E+00 0.00000E+00
 -1        73 1.00000E+00 4.00000E+00 0.00000E+00
 -1        74 1.00000E+00 4.18182E+00 0.00000E+00
 -1        75 1.00000E+00 4.36364E+00 0.00000E+00
 -1        76 1.00000E+00 4.54545E+00 0.00000E+00
 -1        77 1.00000E+00 4.72727E+00 0.00000E+00
 -1        78 1.00000E+00 4.90909E+00 0.00000E+00
 -1        79 1.00000E+00 5.09091E+00 0.00000E+00
 -1        80 1.00000E+00 5.27273E+00 0.00000E+00
 -1        81 1.00000E+00 5.45455E+00 0.00000E+00
 -1        82 1.00000E+00 5.63636E+00 0.00000E+00
 -1        83 1.00000E+00 5.81818E+00 0.00000E+00
 -1        84 1.00000E+00 6.00000E+00 0.00000E+00
 -1        85 1.00000E+00 6.18182E+00 0.00000E+00
 -1        86 1.00000E+00 6.36364E+00 0.00000E+00
 -1        87 1.00000E+00 6.54545E+00 0.00000E+00
 -1        88 1.00000E+00 6.72727E+00 0.00000E+00
 -1        89 1.00000E+00 6.90909E+00 0.00000E+00
 -1        90 1.00000E+00 7.09091E+00 0.00000E+00
 -1        91 1.00000E+00 7.27273E+00 0.00000E+00
 -1        92 1.00000E+00 7.45455E+00 0.00000E+00
 -1        93 1.00000E+00 7.63636E+00 0.00000E+00
 -1        94 1.00000E+00 7.81818E+00 0.00000E+00
 -1        95 1.66667E-01 8.00000E+00 0.00000E+00
 -1        96 3.33333E-01 8.00000E+00 0.00000E+00
 -1        97 5.00000E-01 8.00000E+00 0.00000E+00
 -1        98 6.66667E-01 8.00000E+00 0.00000E+00
 -1        99 8.33333E-01 8.00000E+00 0.00000E+00
 -1       100 0.00000E+00 1.81818E-01 0.00000E+00
 -1       101 0.00000E+00 3.63636E-01 0.00000E+00
 -1       102 0.00000E+00 5.45455E-01 0.00000E+00
 -1       103 0.00000E+00 7.27273E-01 0.00000E+00
 -1       104 0.00000E+00 9.09091E-01 0.00000E+00
 -1       105 0.00000E+00 1.09091E+00 0.00000E+00
 -1       106 0.00000E+00 1.27273E+00 0.00000E+00
 -1       107 0.00000E+00 1.45455E+00 0.00000E+00
 -1       108 0.00000E+00 1.63636E+00 0.00000E+00
 -1       109 0.00000E+00 1.81818E+00 0.00000E+00
 -1       110 0.00000E+00 2.00000E+00 0.00000E+00
 -1       111 0.00000E+00 2.18182E+00 0.00000E+00
 -1       112 0.00000E+00 2.36364E+00 0.00000E+00
 -1       113 0.00000E+00 2.54545E+00 0.00000E+00
 -1       114 0.00000E+00 2.72727E+00 0.00000E+00
 -1       115 0.00000E+00 2.90909E+00 0.00000E+00
 -1       116 0.00000E+00 3.09091E+00 0.00000E+00
 -1       117 0.00000E+00 3.27273E+00 0.00000E+00
 -1       118 0.00000E+00 3.45455E+00 0.00000E+00
 -1       119 0.00000E+00 3.63636E+00 0.00000E+00
 -1       120 0.00000E+00 3.81818E+00 0.00000E+00
 -1       121 0.00000E+00 4.00000E+00 0.00000E+00
 -1       122 0.00000E+00 4.18182E+00 0.00000E+00
 -1       123 0.00000E+00 4.36364E+00 0.00000E+00
 -1       124 0.00000E+00 4.54545E+00 0.00000E+00
 -1       125 0.00000E+00 4.72727E+00 0.00000E+00
 -1       126 0.00000E+00 4.90909E+00 0.00000E+00
 -1       127 0.00000E+00 5.09091E+00 0.00000E+00
 -1       128 0.00000E+00 5.27273E+00 0.00000E+00
 -1       129 0.00000E+00 5.45455E+00 0.00000E+00
 -1       130 0.00000E+00 5.63636E+00 0.00000E+00
 -1       131 0.00000E+00 5.81818E+00 0.00000E+00
 -1       132 0.00000E+00 6.00000E+00 0.00000E+00
 -1       133 0.00000E+00 6.18182E+00 0.00000E+00
 -1       134 0.00000E+00 6.36364E+00 0.00000E+00
 -1       135 0.00000E+00 6.54545E+00 0.00000E+00
 -1       136 0.00000E+00 6.72727E+00 0.00000E+00
 -1       137 0.00000E+00 6.90909E+00 0.00000E+00
 -1       138 0.00000E+00 7.09091E+00 0.00000E+00
 -1       139 0.00000E+00 7.27273E+00 0.00000E+00
 -1       140 0.00000E+00 7.45455E+00 0.00000E+00
 -1       141 0.00000E+00 7.63636E+00 0.00000E+00
 -1       142 0.00000E+00 7.81818E+00 0.00000E+00
 -1       143 0.00000E+00 8.00000E+00-1.31250E+00
 -1       144 0.00000E+00 8.00000E+00-1.12500E+00
 -1       145 0.00000E+00 8.00000E+00-9.37500E-01
 -1       146 0.00000E+00 8.00000E+00-7.50000E-01
 -1       147 0.00000E+00 8.00000E+00-5.62500E-01
 -1       148 0.00000E+00 8.00000E+00-3.75000E-01
 -1       149 0.00000E+00 8.00000E+00-1.87500E-01
 -1       150 0.00000E+00 1.81818E-01-1.50000E+00
 -1       151 0.00000E+00 3.63636E-01-1.50000E+00
 -1       152 0.00000E+00 5.45455E-01-1.50000E+00
 -1       153 0.00000E+00 7.27273E-01-1.50000E+00
 -1       154 0.00000E+00 9.09091E-01-1.50000E+00
 -1       155 0.00000E+00 1.09091E+00-1.50000E+00
 -1       156 0.00000E+00 1.27273E+00-1.50000E+00
 -1       157 0.00000E+00 1.45455E+00-1.50000E+00
 -1       158 0.00000E+00 1.63636E+00-1.50000E+00
 -1       159 0.00000E+00 1.81818E+00-1.50000E+00
 -1       160 0.00000E+00 2.00000E+00-1.50000E+00
 -1       161 0.00000E+00 2.18182E+00-1.50000E+00
 -1       162 0.00000E+00 2.36364E+00-1.50000E+00
 -1       163 0.00000E+00 2.54545E+00-1.50000E+00
 -1       164 0.00000E+00 2.72727E+00-1.50000E+00
 -1       165 0.00000E+00 2.90909E+00-1.50000E+00
 -1       166 0.00000E+00 3.09091E+00-1.50000E+00
 -1       167 0.00000E+00 3.27273E+00-1.50000E+00
 -1       168 0.00000E+00 3.45455E+00-1.50000E+00
 -1       169 0.00000E+00 3.63636E+00-1.50000E+00
 -1       170 0.00000E+00 3.81818E+00-1.50000E+00
 -1       171 0.00000E+00 4.00000E+00-1.50000E+00
 -1       172 0.00000E+00 4.18182E+00-1.50000E+00
 -1       173 0.00000E+00 4.36364E+00-1.50000E+00
 -1       174 0.00000E+00 4.54545E+00-1.50000E+00
 -1       175 0.00000E+00 4.72727E+00-1.50000E+00
 -1       176 0.00000E+00 4.90909E+00-1.50000E+00
 -1       177 0.00000E+00 5.09091E+00-1.50000E+00
 -1       178 0.00000E+00 5.27273E+00-1.50000E+00
 -1       179 0.00000E+00 5.45455E+00-1.50000E+00
 -1       180 0.00000E+00 5.63636E+00-1.50000E+00
 -1       181 0.00000E+00 5.81818E+00-1.50000E+00
 -1       182 0.00000E+00 6.00000E+00-1.50000E+00
 -1       183 0.00000E+00 6.18182E+00-1.50000E+00
 -1       184 0.00000E+00 6.36364E+00-1.50000E+00
 -1       185 0.00000E+00 6.54545E+00-1.50000E+00
 -1       186 0.00000E+00 6.72727E+00-1.50000E+00
 -1       187 0.00000E+00 6.90909E+00-1.50000E+00
 -1       188 0.00000E+00 7.09091E+00-1.50000E+00
 -1       189 0.00000E+00 7.27273E+00-1.50000E+00
 -1       190 0.00000E+00 7.45455E+00-1.50000E+00
 -1       191 0.00000E+00 7.63636E+00-1.50000E+00
 -1       192 0.00000E+00 7.81818E+00-1.50000E+00
 -1       193 8.33333E-01 8.00000E+00-1.50000E+00
 -1       194 6.66667E-01 8.00000E+00-1.50000E+00
 -1       195 5.00000E-01 8.00000E+00-1.50000E+00
 -1       196 3.33333E-01 8.00000E+00-1.50000E+00
 -1       197 1.66667E-01 8.00000E+00-1.50000E+00
 -1       198 1.00000E+00 1.81818E-01-1.50000E+00
 -1       199 1.00000E+00 3.63636E-01-1.50000E+00
 -1       200 1.00000E+00 5.45455E-01-1.50000E+00
 -1       201 1.00000E+00 7.27273E-01-1.50000E+00
 -1       202 1.00000E+00 9.09091E-01-1.50000E+00
 -1       203 1.00000E+00 1.09091E+00-1.50000E+00
 -1       204 1.00000E+00 1.27273E+00-1.50000E+00
 -1       205 1.00000E+00 1.45455E+00-1.50000E+00
 -1       206 1.00000E+00 1.63636E+00-1.50000E+00
 -1       207 1.00000E+00 1.81818E+00-1.50000E+00
 -1       208 1.00000E+00 2.00000E+00-1.50000E+00
 -1       209 1.00000E+00 2.18182E+00-1.50000E+00
 -1       210 1.00000E+00 2.36364E+00-1.50000E+00
 -1       211 1.00000E+00 2.54545E+00-1.50000E+00
 -1       212 1.00000E+00 2.72727E+00-1.50000E+00
 -1       213 1.00000E+00 2.90909E+00-1.50000E+00
 -1       214 1.00000E+00 3.09091E+00-1.50000E+00
 -1       215 1.00000E+00 3.27273E+00-1.50000E+00
 -1       216 1.00000E+00 3.45455E+00-1.50000E+00
 -1       217 1.00000E+00 3.63636E+00-1.50000E+00
 -1       218 1.00000E+00 3.81818E+00-1.50000E+00
 -1       219 1.00000E+00 4.00000E+00-1.50000E+00
 -1       220 1.00000E+00 4.18182E+00-1.50000E+00
 -1       221 1.00000E+00 4.36364E+00-1.50000E+00
 -1       222 1.00000E+00 4.54545E+00-1.50000E+00
 -1       223 1.00000E+00 4.72727E+00-1.50000E+00
 -1       224 1.00000E+00 4.90909E+00-1.50000E+00
 -1       225 1.00000E+00 5.09091E+00-1.50000E+00
 -1       226 1.00000E+00 5.27273E+00-1.50000E+00
 -1       227 1.00000E+00 5.45455E+00-1.50000E+00
 -1       228 1.00000E+00 5.63636E+00-1.50000E+00
 -1       229 1.00000E+00 5.81818E+00-1.50000E+00
 -1       230 1.00000E+00 6.00000E+00-1.50000E+00
 -1       231 1.00000E+00 6.18182E+00-1.50000E+00
 -1       232 1.00000E+00 6.36364E+00-1.50000E+00
 -1       233 1.00000E+00 6.54545E+00-1.50000E+00
 -1       234 1.00000E+00 6.72727E+00-1.50000E+00
 -1       235 1.00000E+00 6.90909E+00-1.50000E+00
 -1       236 1.00000E+00 7.09091E+00-1.50000E+00
 -1       237 1.00000E+00 7.27273E+00-1.50000E+00
 -1       238 1.00000E+00 7.45455E+00-1.50000E+00
 -1       239 1.00000E+00 7.63636E+00-1.50000E+00
 -1       240 1.00000E+00 7.81818E+00-1.50000E+00
 -1       241 1.00000E+00 8.00000E+00-1.87500E-01
 -1       242 1.00000E+00 8.00000E+00-3.75000E-01
 -1       243 1.00000E+00 8.00000E+00-5.62500E-01
 -1       244 1.00000E+00 8.00000E+00-7.50000E-01
 -1       245 1.00000E+00 8.00000E+00-9.37500E-01
 -1       246 1.00000E+00 8.00000E+00-1.12500E+00
 -1       247 1.00000E+00 8.00000E+00-1.31250E+00
 -1       248 1.66667E-01 0.00000E+00-1.31250E+00
 -1       249 3.33333E-01 0.00000E+00-1.31250E+00
 -1       250 5.00000E-01 0.00000E+00-1.31250E+00
 -1       251 6.66667E-01 0.00000E+00-1.31250E+00
 -1       252 8.33333E-01 0.00000E+00-1.31250E+00
 -1       253 1.66667E-01 0.00000E+00-1.12500E+00
 -1       254 3.33333E-01 0.00000E+00-1.12500E+00
 -1       255 5.00000E-01 0.00000E+00-1.12500E+00
 -1       256 6.66667E-01 0.00000E+00-1.12500E+00
 -1       257 8.33333E-01 0.00000E+00-1.12500E+00
 -1       258 1.66667E-01 0.00000E+00-9.37500E-01
 -1       259 3.33333E-01 0.00000E+00-9.37500E-01
 -1       260 5.00000E-01 0.00000E+00-9.37500E-01
 -1       261 6.66667E-01 0.00000E+00-9.37500E-01
 -1       262 8.33333E-01 0.00000E+00-9.37500E-01
 -1       263 1.66667E-01 0.00000E+00-7.50000E-01
 -1       264 3.33333E-01 0.00000E+00-7.50000E-01
 -1       265 5.00000E-01 0.00000E+00-7.50000E-01
 -1       266 6.66667E-01 0.00000E+00-7.50000E-01
 -1       267 8.33333E-01 0.00000E+00-7.50000E-01
 -1       268 1.66667E-01 0.00000E+00-5.62500E-01
 -1       269 3.33333E-01 0.00000E+00-5.62500E-01
 -1       270 5.00000E-01 0.00000E+00-5.62500E-01
 -1       271 6.66667E-01 0.00000E+00-5.62500E-01
 -1       272 8.33333E-01 0.00000E+00-5.62500E-01
 -1       273 1.66667E-01 0.00000E+00-3.75000E-01
 -1       274 3.33333E-01 0.00000E+00-3.75000E-01
 -1       275 5.00000E-01 0.00000E+00-3.75000E-01
 -1       276 6.66667E-01 0.00000E+00-3.75000E-01
 -1       277 8.33333E-01 0.00000E+00-3.75000E-01
 -1       278 1.66667E-01 0.00000E+00-1.87500E-01
 -1       279 3.33333E-01 0.00000E+00-1.87500E-01
 -1       280 5.00000E-01 0.00000E+00-1.87500E-01
 -1       281 6.66667E-01 0.00000E+00-1.87500E-01
 -1       282 8.33333E-01 0.00000E+00-1.87500E-01
 -1       283 8.33333E-01 1.81818E-01 0.00000E+00
 -1       284 6.66667E-01 1.81818E-01 0.00000E+00
 -1       285 5.00000E-01 1.81818E-01 0.00000E+00
 -1       286 3.33333E-01 1.81818E-01 0.00000E+00
 -1       287 1.66667E-01 1.81818E-01 0.00000E+00
 -1       288 8.33333E-01 3.63636E-01 0.00000E+00
 -1       289 6.66667E-01 3.63636E-01 0.00000E+00
 -1       290 5.00000E-01 3.63636E-01 0.00000E+00
 -1       291 3.33333E-01 3.63636E-01 0.00000E+00
 -1       292 1.66667E-01 3.63636E-01 0.00000E+00
 -1       293 8.33333E-01 5.45455E-01 0.00000E+00
 -1       294 6.66667E-01 5.45455E-01 0.00000E+00
 -1       295 5.00000E-01 5.45455E-01 0.00000E+00
 -1       296 3.33333E-01 5.45455E-01 0.00000E+00
 -1       297 1.66667E-01 5.45455E-01 0.00000E+00
 -1       298 8.33333E-01 7.27273E-01 0.00000E+00
 -1       299 6.66667E-01 7.27273E-01 0.00000E+00
 -1       300 5.00000E-01 7.27273E-01 0.00000E+00
 -1       301 3.33333E-01 7.27273E-01 0.00000E+00
 -1       302 1.66667E-01 7.27273E-01 0.00000E+00
 -1       303 8.33333E-01 9.09091E-01 0.00000E+00
 -1       304 6.66667E-01 9.09091E-01 0.00000E+00
 -1       305 5.00000E-01 9.09091E-01 0.00000E+00
 -1       306 3.33333E-01 9.09091E-01 0.00000E+00
 -1       307 1.66667E-01 9.09091E-01 0.00000E+00
 -1       308 8.33333E-01 1.09091E+00 0.00000E+00
 -1       309 6.66667E-01 1.09091E+00 0.00000E+00
 -1       310 5.00000E-01 1.09091E+00 0.00000E+00
 -1       311 3.33333E-01 1.09091E+00 0.00000E+00
 -1       312 1.66667E-01 1.09091E+00 0.00000E+00
 -1       313 8.33333E-01 1.27273E+00 0.00000E+00
 -1       314 6.66667E-01 1.27273E+00 0.00000E+00
 -1       315 5.00000E-01 1.27273E+00 0.00000E+00
 -1       316 3.33333E-01 1.27273E+00 0.00000E+00
 -1       317 1.66667E-01 1.27273E+00 0.00000E+00
 -1       318 8.33333E-01 1.45455E+00 0.00000E+00
 -1       319 6.66667E-01 1.45455E+00 0.00000E+00
 -1       320 5.00000E-01 1.45455E+00 0.00000E+00
 -1       321 3.33333E-01 1.45455E+00 0.00000E+00
 -1       322 1.66667E-01 1.45455E+00 0.00000E+00
 -1       323 8.33333E-01 1.63636E+00 0.00000E+00
 -1       324 6.66667E-01 1.63636E+00 0.00000E+00
 -1       325 5.00000E-01 1.63636E+00 0.00000E+00
 -1       326 3.33333E-01 1.63636E+00 0.00000E+00
 -1       327 1.66667E-01 1.63636E+00 0.00000E+00
 -1       328 8.33333E-01 1.81818E+00 0.00000E+00
 -1       329 6.66667E-01 1.81818E+00 0.00000E+00
 -1       330 5.00000E-01 1.81818E+00 0.00000E+00
 -1       331 3.33333E-01 1.81818E+00 0.00000E+00
 -1       332 1.66667E-01 1.81818E+00 0.00000E+00
 -1       333 8.33333E-01 2.00000E+00 0.00000E+00
 -1       334 6.66667E-01 2.00000E+00 0.00000E+00
 -1       335 5.00000E-01 2.00000E+00 0.00000E+00
 -1       336 3.33333E-01 2.00000E+00 0.00000E+00
 -1       337 1.66667E-01 2.00000E+00 0.00000E+00
 -1       338 8.33333E-01 2.18182E+00 0.00000E+00
 -1       339 6.66667E-01 2.18182E+00 0.00000E+00
 -1       340 5.00000E-01 2.18182E+00 0.00000E+00
 -1       341 3.33333E-01 2.18182E+00 0.00000E+00
 -1       342 1.66667E-01 2.18182E+00 0.00000E+00
 -1       343 8.33333E-01 2.36364E+00 0.00000E+00
 -1       344 6.66667E-01 2.36364E+00 0.00000E+00
 -1       345 5.00000E-01 2.36364E+00 0.00000E+00
 -1       346 3.33333E-01 2.36364E+00 0.00000E+00
 -1       347 1.66667E-01 2.36364E+00 0.00000E+00
 -1       348 8.33333E-01 2.54545E+00 0.00000E+00
 -1       349 6.66667E-01 2.54545E+00 0.00000E+00
 -1       350 5.00000E-01 2.54545E+00 0.00000E+00
 -1       351 3.33333E-01 2.54545E+00 0.00000E+00
 -1       352 1.66667E-01 2.54545E+00 0.00000E+00
 -1       353 8.33333E-01 2.72727E+00 0.00000E+00
 -1       354 6.66667E-01 2.72727E+00 0.00000E+00
 -1       355 5.00000E-01 2.72727E+00 0.00000E+00
 -1       356 3.33333E-01 2.72727E+00 0.00000E+00
 -1       357 1.66667E-01 2.72727E+00 0.00000E+00
 -1       358 8.33333E-01 2.90909E+00 0.00000E+00
 -1       359 6.66667E-01 2.90909E+00 0.00000E+00
 -1       360 5.00000E-01 2.90909E+00 0.00000E+00
 -1       361 3.33333E-01 2.90909E+00 0.00000E+00
 -1       362 1.66667E-01 2.90909E+00 0.00000E+00
 -1       363 8.33333E-01 3.09091E+00 0.00000E+00
 -1       364 6.66667E-01 3.09091E+00 0.00000E+00
 -1       365 5.00000E-01 3.09091E+00 0.00000E+00
 -1       366 3.33333E-01 3.09091E+00 0.00000E+00
 -1       367 1.66667E-01 3.09091E+00 0.00000E+00
 -1       368 8.33333E-01 3.27273E+00 0.00000E+00
 -1       369 6.66667E-01 3.27273E+00 0.00000E+00
 -1       370 5.00000E-01 3.27273E+00 0.00000E+00
 -1       371 3.33333E-01 3.27273E+00 0.00000E+00
 -1       372 1.66667E-01 3.27273E+00 0.00000E+00
 -1       373 8.33333E-01 3.45455E+00 0.00000E+00
 -1       374 6.66667E-01 3.45455E+00 0.00000E+00
 -1       375 5.00000E-01 3.45455E+00 0.00000E+00
 -1       376 3.33333E-01 3.45455E+00 0.00000E+00
 -1       377 1.66667E-01 3.45455E+00 0.00000E+00
 -1       378 8.33333E-01 3.63636E+00 0.00000E+00
 -1       379 6.66667E-01 3.63636E+00 0.00000E+00
 -1       380 5.00000E-01 3.63636E+00 0.00000E+00
 -1       381 3.33333E-01 3.63636E+00 0.00000E+00
 -1       382 1.66667E-01 3.63636E+00 0.00000E+00
 -1       383 8.33333E-01 3.81818E+00 0.00000E+00
 -1       384 6.66667E-01 3.81818E+00 0.00000E+00
 -1       385 5.00000E-01 3.81818E+00 0.00000E+00
 -1       386 3.33333E-01 3.81818E+00 0.00000E+00
 -1       387 1.66667E-01 3.81818E+00 0.00000E+00
 -1       388 8.33333E-01 4.00000E+00 0.00000E+00
 -1       389 6.66667E-01 4.00000E+00 0.00000E+00
 -1       390 5.00000E-01 4.00000E+00 0.00000E+00
 -1       391 3.33333E-01 4.00000E+00 0.00000E+00
 -1       392 1.66667E-01 4.00000E+00 0.00000E+00
 -1       393 8.33333E-01 4.18182E+00 0.00000E+00
 -1       394 6.66667E-01 4.18182E+00 0.00000E+00
 -1       395 5.00000E-01 4.18182E+00 0.00000E+00
 -1       396 3.33333E-01 4.18182E+00 0.00000E+00
 -1       397 1.66667E-01 4.18182E+00 0.00000E+00
 -1       398 8.33333E-01 4.36364E+00 0.00000E+00
 -1       399 6.66667E-01 4.36364E+00 0.00000E+00
 -1       400 5.00000E-01 4.36364E+00 0.00000E+00
 -1       401 3.33333E-01 4.36364E+00 0.00000E+00
 -1       402 1.66667E-01 4.36364E+00 0.00000E+00
 -1       403 8.33333E-01 4.54545E+00 0.00000E+00
 -1       404 6.66667E-01 4.54545E+00 0.00000E+00
 -1       405 5.00000E-01 4.54545E+00 0.00000E+00
 -1       406 3.33333E-01 4.54545E+00 0.00000E+00
 -1       407 1.66667E-01 4.54545E+00 0.00000E+00
 -1       408 8.33333E-01 4.72727E+00 0.00000E+00
 -1       409 6.66667E-01 4.72727E+00 0.00000E+00
 -1       410 5.00000E-01 4.72727E+00 0.00000E+00
 -1       411 3.33333E-01 4.72727E+00 0.00000E+00
 -1       412 1.66667E-01 4.72727E+00 0.00000E+00
 -1       413 8.33333E-01 4.90909E+00 0.00000E+00
 -1       414 6.66667E-01 4.90909E+00 0.00000E+00
 -1       415 5.00000E-01 4.90909E+00 0.00000E+00
 -1       416 3.33333E-01 4.90909E+00 0.00000E+00
 -1       417 1.66667E-01 4.90909E+00 0.00000E+00
 -1       418 8.33333E-01 5.09091E+00 0.00000E+00
 -1       419 6.66667E-01 5.09091E+00 0.00000E+00
 -1       420 5.00000E-01 5.09091E+00 0.00000E+00
 -1       421 3.33333E-01 5.09091E+00 0.00000E+00
 -1       422 1.66667E-01 5.09091E+00 0.00000E+00
 -1       423 8.33333E-01 5.27273E+00 0.00000E+00
 -1       424 6.66667E-01 5.27273E+00 0.00000E+00
 -1       425 5.00000E-01 5.27273E+00 0.00000E+00
 -1       426 3.33333E-01 5.27273E+00 0.00000E+00
 -1       427 1.66667E-01 5.27273E+00 0.00000E+00
 -1       428 8.33333E-01 5.45455E+00 0.00000E+00
 -1       429 6.66667E-01 5.45455E+00 0.00000E+00
 -1       430 5.00000E-01 5.45455E+00 0.00000E+00
 -1       431 3.33333E-01 5.45455E+00 0.00000E+00
 -1       432 1.66667E-01 5.45455E+00 0.00000E+00
 -1       433 8.33333E-01 5.63636E+00 0.00000E+00
 -1       434 6.66667E-01 5.63636E+00 0.00000E+00
 -1       435 5.00000E-01 5.63636E+00 0.00000E+00
 -1       436 3.33333E-01 5.63636E+00 0.00000E+00
 -1       437 1.66667E-01 5.63636E+00 0.00000E+00
 -1       438 8.33333E-01 5.81818E+00 0.00000E+00
 -1       439 6.66667E-01 5.81818E+00 0.00000E+00
 -1       440 5.00000E-01 5.81818E+00 0.00000E+00
 -1       441 3.33333E-01 5.81818E+00 0.00000E+00
 -1       442 1.66667E-01 5.81818E+00 0.00000E+00
 -1       443 8.33333E-01 6.00000E+00 0.00000E+00
 -1       444 6.66667E-01 6.00000E+00 0.00000E+00
 -1       445 5.00000E-01 6.00000E+00 0.00000E+00
 -1       446 3.33333E-01 6.00000E+00 0.00000E+00
 -1       447 1.66667E-01 6.00000E+00 0.00000E+00
 -1       448 8.33333E-01 6.18182E+00 0.00000E+00
 -1       449 6.66667E-01 6.18182E+00 0.00000E+00
 -1       450 5.00000E-01 6.18182E+00 0.00000E+00
 -1       451 3.33333E-01 6.18182E+00 0.00000E+00
 -1       452 1.66667E-01 6.18182E+00 0.00000E+00
 -1       453 8.33333E-01 6.36364E+00 0.00000E+00
 -1       454 6.66667E-01 6.36364E+00 0.00000E+00
 -1       455 5.00000E-01 6.36364E+00 0.00000E+00
 -1       456 3.33333E-01 6.36364E+00 0.00000E+00
 -1       457 1.66667E-01 6.36364E+00 0.00000E+00
 -1       458 8.33333E-01 6.54545E+00 0.00000E+00
 -1       459 6.66667E-01 6.54545E+00 0.00000E+00
 -1       460 5.00000E-01 6.54545E+00 0.00000E+00
 -1       461 3.33333E-01 6.54545E+00 0.00000E+00
 -1       462 1.66667E-01 6.54545E+00 0.00000E+00
 -1       463 8.33333E-01 6.72727E+00 0.00000E+00
 -1       464 6.66667E-01 6.72727E+00 0.00000E+00
 -1       465 5.00000E-01 6.72727E+00 0.00000E+00
 -1       466 3.33333E-01 6.72727E+00 0.00000E+00
 -1       467 1.66667E-01 6.72727E+00 0.00000E+00
 -1       468 8.33333E-01 6.90909E+00 0.00000E+00
 -1       469 6.66667E-01 6.90909E+00 0.00000E+00
 -1       470 5.00000E-01 6.90909E+00 0.00000E+00
 -1       471 3.33333E-01 6.90909E+00 0.00000E+00
 -1       472 1.66667E-01 6.90909E+00 0.00000E+00
 -1       473 8.33333E-01 7.09091E+00 0.00000E+00
 -1       474 6.66667E-01 7.09091E+00 0.00000E+00
 -1       475 5.00000E-01 7.09091E+00 0.00000E+00
 -1       476 3.33333E-01 7.09091E+00 0.00000E+00
 -1       477 1.66667E-01 7.09091E+00 0.00000E+00
 -1       478 8.33333E-01 7.27273E+00 0.00000E+00
 -1       479 6.66667E-01 7.27273E+00 0.00000E+00
 -1       480 5.00000E-01 7.27273E+00 0.00000E+00
 -1       481 3.33333E-01 7.27273E+00 0.00000E+00
 -1       482 1.66667E-01 7.27273E+00 0.00000E+00
 -1       483 8.33333E-01 7.45455E+00 0.00000E+00
 -1       484 6.66667E-01 7.45455E+00 0.00000E+00
 -1       485 5.00000E-01 7.45455E+00 0.00000E+00
 -1       486 3.33333E-01 7.45455E+00 0.00000E+00
 -1       487 1.66667E-01 7.45455E+00 0.00000E+00
 -1       488 8.33333E-01 7.63636E+00 0.00000E+00
 -1       489 6.66667E-01 7.63636E+00 0.00000E+00
 -1       490 5.00000E-01 7.63636E+00 0.00000E+00
 -1       491 3.33333E-01 7.63636E+00 0.00000E+00
 -1       492 1.66667E-01 7.63636E+00 0.00000E+00
 -1       493 8.33333E-01 7.81818E+00 0.00000E+00
 -1       494 6.66667E-01 7.81818E+00 0.00000E+00
 -1       495 5.00000E-01 7.81818E+00 0.00000E+00
 -1       496 3.33333E-01 7.81818E+00 0.00000E+00
 -1       497 1.66667E-01 7.81818E+00 0.00000E+00
 -1       498 0.00000E+00 1.81818E-01-1.87500E-01
 -1       499 0.00000E+00 1.81818E-01-3.75000E-01
 -1       500 0.00000E+00 1.81818E-01-5.62500E-01
 -1       501 0.00000E+00 1.81818E-01-7.50000E-01
 -1       502 0.00000E+00 1.81818E-01-9.37500E-01
 -1       503 0.00000E+00 1.81818E-01-1.12500E+00
 -1       504 0.00000E+00 1.81818E-01-1.31250E+00
 -1       505 0.00000E+00 3.63636E-01-1.87500E-01
 -1       506 0.00000E+00 3.63636E-01-3.75000E-01
 -1       507 0.00000E+00 3.63636E-01-5.62500E-01
 -1       508 0.00000E+00 3.63636E-01-7.50000E-01
 -1       509 0.00000E+00 3.63636E-01-9.37500E-01
 -1       510 0.00000E+00 3.63636E-01-1.12500E+00
 -1       511 0.00000E+00 3.63636E-01-1.31250E+00
 -1       512 0.00000E+00 5.45455E-01-1.87500E-01
 -1       513 0.00000E+00 5.45455E-01-3.75000E-01
 -1       514 0.00000E+00 5.45455E-01-5.62500E-01
 -1       515 0.00000E+00 5.45455E-01-7.50000E-01
 -1       516 0.00000E+00 5.45455E-01-9.37500E-01
 -1       517 0.00000E+00 5.45455E-01-1.12500E+00
 -1       518 0.00000E+00 5.45455E-01-1.31250E+00
 -1       519 0.00000E+00 7.27273E-01-1.87500E-01
 -1       520 0.00000E+00 7.27273E-01-3.75000E-01
 -1       521 0.00000E+00 7.27273E-01-5.62500E-01
 -1       522 0.00000E+00 7.27273E-01-7.50000E-01
 -1       523 0.00000E+00 7.27273E-01-9.37500E-01
 -1       524 0.00000E+00 7.27273E-01-1.12500E+00
 -1       525 0.00000E+00 7.27273E-01-1.31250E+00
 -1       526 0.00000E+00 9.09091E-01-1.87500E-01
 -1       527 0.00000E+00 9.09091E-01-3.75000E-01
 -1       528 0.00000E+00 9.09091E-01-5.62500E-01
 -1       529 0.00000E+00 9.09091E-01-7.50000E-01
 -1       530 0.00000E+00 9.09091E-01-9.37500E-01
 -1       531 0.00000E+00 9.09091E-01-1.12500E+00
 -1       532 0.00000E+00 9.09091E-01-1.31250E+00
 -1       533 0.00000E+00 1.09091E+00-1.87500E-01
 -1       534 0.00000E+00 1.09091E+00-3.75000E-01
 -1       535 0.00000E+00 1.09091E+00-5.62500E-01
 -1       536 0.00000E+00 1.09091E+00-7.50000E-01
 -1       537 0.00000E+00 1.09091E+00-9.37500E-01
 -1       538 0.00000E+00 1.09091E+00-1.12500E+00
 -1       539 0.00000E+00 1.09091E+00-1.31250E+00
 -1       540 0.00000E+00 1.27273E+00-1.87500E-01
 -1       541 0.00000E+00 1.27273E+00-3.75000E-01
 -1       542 0.00000E+00 1.27273E+00-5.62500E-01
 -1       543 0.00000E+00 1.27273E+00-7.50000E-01
 -1       544 0.00000E+00 1.27273E+00-9.37500E-01
 -1       545 0.00000E+00 1.27273E+00-1.12500E+00
 -1       546 0.00000E+00 1.27273E+00-1.31250E+00
 -1       547 0.00000E+00 1.45455E+00-1.87500E-01
 -1       548 0.00000E+00 1.45455E+00-3.75000E-01
 -1       549 0.00000E+00 1.45455E+00-5.62500E-01
 -1       550 0.00000E+00 1.45455E+00-7.50000E-01
 -1       551 0.00000E+00 1.45455E+00-9.37500E-01
 -1       552 0.00000E+00 1.45455E+00-1.12500E+00
 -1       553 0.00000E+00 1.45455E+00-1.31250E+00
 -1       554 0.00000E+00 1.63636E+00-1.87500E-01
 -1       555 0.00000E+00 1.63636E+00-3.75000E-01
 -1       556 0.00000E+00 1.63636E+00-5.62500E-01
 -1       557 0.00000E+00 1.63636E+00-7.50000E-01
 -1       558 0.00000E+00 1.63636E+00-9.37500E-01
 -1       559 0.00000E+00 1.63636E+00-1.12500E+00
 -1       560 0.00000E+00 1.63636E+00-1.31250E+00
 -1       561 0.00000E+00 1.81818E+00-1.87500E-01
 -1       562 0.00000E+00 1.81818E+00-3.75000E-01
 -1       563 0.00000E+00 1.81818E+00-5.62500E-01
 -1       564 0.00000E+00 1.81818E+00-7.50000E-01
 -1       565 0.00000E+00 1.81818E+00-9.37500E-01
 -1       566 0.00000E+00 1.81818E+00-1.12500E+00
 -1       567 0.00000E+00 1.81818E+00-1.31250E+00
 -1       568 0.00000E+00 2.00000E+00-1.87500E-01
 -1       569 0.00000E+00 2.00000E+00-3.75000E-01
 -1       570 0.00000E+00 2.00000E+00-5.62500E-01
 -1       571 0.00000E+00 2.00000E+00-7.50000E-01
 -1       572 0.00000E+00 2.00000E+00-9.37500E-01
 -1       573 0.00000E+00 2.00000E+00-1.12500E+00
 -1       574 0.00000E+00 2.00000E+00-1.31250E+00
 -1       575 0.00000E+00 2.18182E+00-1.87500E-01
 -1       576 0.00000E+00 2.18182E+00-3.75000E-01
 -1       577 0.00000E+00 2.18182E+00-5.62500E-01
 -1       578 0.00000E+00 2.18182E+00-7.50000E-01
 -1       579 0.00000E+00 2.18182E+00-9.37500E-01
 -1       580 0.00000E+00 2.18182E+00-1.12500E+00
 -1       581 0.00000E+00 2.18182E+00-1.31250E+00
 -1       582 0.00000E+00 2.36364E+00-1.87500E-01
 -1       583 0.00000E+00 2.36364E+00-3.75000E-01
 -1       584 0.00000E+00 2.36364E+00-5.62500E-01
 -1       585 0.00000E+00 2.36364E+00-7.50000E-01
 -1       586 0.00000E+00 2.36364E+00-9.37500E-01
 -1       587 0.00000E+00 2.36364E+00-1.12500E+00
 -1       588 0.00000E+00 2.36364E+00-1.31250E+00
 -1       589 0.00000E+00 2.54545E+00-1.87500E-01
 -1       590 0.00000E+00 2.54545E+00-3.75000E-01
 -1       591 0.00000E+00 2.54545E+00-5.62500E-01
 -1       592 0.00000E+00 2.54545E+00-7.50000E-01
 -1       593 0.00000E+00 2.54545E+00-9.37500E-01
 -1       594 0.00000E+00 2.54545E+00-1.12500E+00
 -1       595 0.00000E+00 2.54545E+00-1.31250E+00
 -1       596 0.00000E+00 2.72727E+00-1.87500E-01
 -1       597 0.00000E+00 2.72727E+00-3.75000E-01
 -1       598 0.00000E+00 2.72727E+00-5.62500E-01
 -1       599 0.00000E+00 2.72727E+00-7.50000E-01
 -1       600 0.00000E+00 2.72727E+00-9.37500E-01
 -1       601 0.00000E+00 2.72727E+00-1.12500E+00
 -1       602 0.00000E+00 2.72727E+00-1.31250E+00
 -1       603 0.00000E+00 2.90909E+00-1.87500E-01
 -1       604 0.00000E+00 2.90909E+00-3.75000E-01
 -1       605 0.00000E+00 2.90909E+00-5.62500E-01
 -1       606 0.00000E+00 2.90909E+00-7.50000E-01
 -1       607 0.00000E+00 2.90909E+00-9.37500E-01
 -1       608 0.00000E+00 2.90909E+00-1.12500E+00
 -1       609 0.00000E+00 2.90909E+00-1.31250E+00
 -1       610 0.00000E+00 3.09091E+00-1.87500E-01
 -1       611 0.00000E+00 3.09091E+00-3.75000E-01
 -1       612 0.00000E+00 3.09091E+00-5.62500E-01
 -1       613 0.00000E+00 3.09091E+00-7.50000E-01
 -1       614 0.00000E+00 3.09091E+00-9.37500E-01
 -1       615 0.00000E+00 3.09091E+00-1.12500E+00
 -1       616 0.00000E+00 3.09091E+00-1.31250E+00
 -1       617 0.00000E+00 3.27273E+00-1.87500E-01
 -1       618 0.00000E+00 3.27273E+00-3.75000E-01
 -1       619 0.00000E+00 3.27273E+00-5.62500E-01
 -1       620 0.00000E+00 3.27273E+00-7.50000E-01
 -1       621 0.00000E+00 3.27273E+00-9.37500E-01
 -1       622 0.00000E+00 3.27273E+00-1.12500E+00
 -1       623 0.00000E+00 3.27273E+00-1.31250E+00
 -1       624 0.00000E+00 3.45455E+00-1.87500E-01
 -1       625 0.00000E+00 3.45455E+00-3.75000E-01
 -1       626 0.00000E+00 3.45455E+00-5.62500E-01
 -1       627 0.00000E+00 3.45455E+00-7.50000E-01
 -1       628 0.00000E+00 3.45455E+00-9.37500E-01
 -1       629 0.00000E+00 3.45455E+00-1.12500E+00
 -1       630 0.00000E+00 3.45455E+00-1.31250E+00
 -1       631 0.00000E+00 3.63636E+00-1.87500E-01
 -1       632 0.00000E+00 3.63636E+00-3.75000E-01
 -1       633 0.00000E+00 3.63636E+00-5.62500E-01
 -1       634 0.00000E+00 3.63636E+00-7.50000E-01
 -1       635 0.00000E+00 3.63636E+00-9.37500E-01
 -1       636 0.00000E+00 3.63636E+00-1.12500E+00
 -1       637 0.00000E+00 3.63636E+00-1.31250E+00
 -1       638 0.00000E+00 3.81818E+00-1.87500E-01
 -1       639 0.00000E+00 3.81818E+00-3.75000E-01
 -1       640 0.00000E+00 3.81818E+00-5.62500E-01
 -1       641 0.00000E+00 3.81818E+00-7.50000E-01
 -1       642 0.00000E+00 3.81818E+00-9.37500E-01
 -1       643 0.00000E+00 3.81818E+00-1.12500E+00
 -1       644 0.00000E+00 3.81818E+00-1.31250E+00
 -1       645 0.00000E+00 4.00000E+00-1.87500E-01
 -1       646 0.00000E+00 4.00000E+00-3.75000E-01
 -1       647 0.00000E+00 4.00000E+00-5.62500E-01
 -1       648 0.00000E+00 4.00000E+00-7.50000E-01
 -1       649 0.00000E+00 4.00000E+00-9.37500E-01
 -1       650 0.00000E+00 4.00000E+00-1.12500E+00
 -1       651 0.00000E+00 4.00000E+00-1.31250E+00
 -1       652 0.00000E+00 4.18182E+00-1.87500E-01
 -1       653 0.00000E+00 4.18182E+00-3.75000E-01
 -1       654 0.00000E+00 4.18182E+00-5.62500E-01
 -1       655 0.00000E+00 4.18182E+00-7.50000E-01
 -1       656 0.00000E+00 4.18182E+00-9.37500E-01
 -1       657 0.00000E+00 4.18182E+00-1.12500E+00
 -1       658 0.00000E+00 4.18182E+00-1.31250E+00
 -1       659 0.00000E+00 4.36364E+00-1.87500E-01
 -1       660 0.00000E+00 4.36364E+00-3.75000E-01
 -1       661 0.00000E+00 4.36364E+00-5.62500E-01
 -1       662 0.00000E+00 4.36364E+00-7.50000E-01
 -1       663 0.00000E+00 4.36364E+00-9.37500E-01
 -1       664 0.00000E+00 4.36364E+00-1.12500E+00
 -1       665 0.00000E+00 4.36364E+00-1.31250E+00
 -1       666 0.00000E+00 4.54545E+00-1.87500E-01
 -1       667 0.00000E+00 4.54545E+00-3.75000E-01
 -1       668 0.00000E+00 4.54545E+00-5.62500E-01
 -1       669 0.00000E+00 4.54545E+00-7.50000E-01
 -1       670 0.00000E+00 4.54545E+00-9.37500E-01
 -1       671 0.00000E+00 4.54545E+00-1.12500E+00
 -1       672 0.00000E+00 4.54545E+00-1.31250E+00
 -1       673 0.00000E+00 4.72727E+00-1.87500E-01
 -1       674 0.00000E+00 4.72727E+00-3.75000E-01
 -1       675 0.00000E+00 4.72727E+00-5.62500E-01
 -1       676 0.00000E+00 4.72727E+00-7.50000E-01
 -1       677 0.00000E+00 4.72727E+00-9.37500E-01
 -1       678 0.00000E+00 4.72727E+00-1.12500E+00
 -1       679 0.00000E+00 4.72727E+00-1.31250E+00
 -1       680 0.00000E+00 4.90909E+00-1.87500E-01
 -1       681 0.00000E+00 4.90909E+00-3.75000E-01
 -1       682 0.00000E+00 4.90909E+00-5.62500E-01
 -1       683 0.00000E+00 4.90909E+00-7.50000E-01
 -1       684 0.00000E+00 4.90909E+00-9.37500E-01
 -1       685 0.00000E+00 4.90909E+00-1.12500E+00
 -1       686 0.00000E+00 4.90909E+00-1.31250E+00
 -1       687 0.00000E+00 5.09091E+00-1.87500E-01
 -1       688 0.00000E+00 5.09091E+00-3.75000E-01
 -1       689 0.00000E+00 5.09091E+00-5.62500E-01
 -1       690 0.00000E+00 5.09091E+00-7.50000E-01
 -1       691 0.00000E+00 5.09091E+00-9.37500E-01
 -1       692 0.00000E+00 5.09091E+00-1.12500E+00
 -1       693 0.00000E+00 5.09091E+00-1.31250E+00
 -1       694 0.00000E+00 5.27273E+00-1.87500E-01
 -1       695 0.00000E+00 5.27273E+00-3.75000E-01
 -1       696 0.00000E+00 5.27273E+00-5.62500E-01
 -1       697 0.00000E+00 5.27273E+00-7.50000E-01
 -1       698 0.00000E+00 5.27273E+00-9.37500E-01
 -1       699 0.00000E+00 5.27273E+00-1.12500E+00
 -1       700 0.00000E+00 5.27273E+00-1.31250E+00
 -1       701 0.00000E+00 5.45455E+00-1.87500E-01
 -1       702 0.00000E+00 5.45455E+00-3.75000E-01
 -1       703 0.00000E+00 5.45455E+00-5.62500E-01
 -1       704 0.00000E+00 5.45455E+00-7.50000E-01
 -1       705 0.00000E+00 5.45455E+00-9.37500E-01
 -1       706 0.00000E+00 5.45455E+00-1.12500E+00
 -1       707 0.00000E+00 5.45455E+00-1.31250E+00
 -1       708 0.00000E+00 5.63636E+00-1.87500E-01
 -1       709 0.00000E+00 5.63636E+00-3.75000E-01
 -1       710 0.00000E+00 5.63636E+00-5.62500E-01
 -1       711 0.00000E+00 5.63636E+00-7.50000E-01
 -1       712 0.00000E+00 5.63636E+00-9.37500E-01
 -1       713 0.00000E+00 5.63636E+00-1.12500E+00
 -1       714 0.00000E+00 5.63636E+00-1.31250E+00
 -1       715 0.00000E+00 5.81818E+00-1.87500E-01
 -1       716 0.00000E+00 5.81818E+00-3.75000E-01
 -1       717 0.00000E+00 5.81818E+00-5.62500E-01
 -1       718 0.00000E+00 5.81818E+00-7.50000E-01
 -1       719 0.00000E+00 5.81818E+00-9.37500E-01
 -1       720 0.00000E+00 5.81818E+00-1.12500E+00
 -1       721 0.00000E+00 5.81818E+00-1.31250E+00
 -1       722 0.00000E+00 6.00000E+00-1.87500E-01
 -1       723 0.00000E+00 6.00000E+00-3.75000E-01
 -1       724 0.00000E+00 6.00000E+00-5.62500E-01
 -1       725 0.00000E+00 6.00000E+00-7.50000E-01
 -1       726 0.00000E+00 6.00000E+00-9.37500E-01
 -1       727 0.00000E+00 6.00000E+00-1.12500E+00
 -1       728 0.00000E+00 6.00000E+00-1.31250E+00
 -1       729 0.00000E+00 6.18182E+00-1.87500E-01
 -1       730 0.00000E+00 6.18182E+00-3.75000E-01
 -1       731 0.00000E+00 6.18182E+00-5.62500E-01
 -1       732 0.00000E+00 6.18182E+00-7.50000E-01
 -1       733 0.00000E+00 6.18182E+00-9.37500E-01
 -1       734 0.00000E+00 6.18182E+00-1.12500E+00
 -1       735 0.00000E+00 6.18182E+00-1.31250E+00
 -1       736 0.00000E+00 6.36364E+00-1.87500E-01
 -1       737 0.00000E+00 6.36364E+00-3.75000E-01
 -1       738 0.00000E+00 6.36364E+00-5.62500E-01
 -1       739 0.00000E+00 6.36364E+00-7.50000E-01
 -1       740 0.00000E+00 6.36364E+00-9.37500E-01
 -1       741 0.00000E+00 6.36364E+00-1.12500E+00
 -1       742 0.00000E+00 6.36364E+00-1.31250E+00
 -1       743 0.00000E+00 6.54545E+00-1.87500E-01
 -1       744 0.00000E+00 6.54545E+00-3.75000E-01
 -1       745 0.00000E+00 6.54545E+00-5.62500E-01
 -1       746 0.00000E+00 6.54545E+00-7.50000E-01
 -1       747 0.00000E+00 6.54545E+00-9.37500E-01
 -1       748 0.00000E+00 6.54545E+00-1.12500E+00
 -1       749 0.00000E+00 6.54545E+00-1.31250E+00
 -1       750 0.00000E+00 6.72727E+00-1.87500E-01
 -1       751 0.00000E+00 6.72727E+00-3.75000E-01
 -1       752 0.00000E+00 6.72727E+00-5.62500E-01
 -1       753 0.00000E+00 6.72727E+00-7.50000E-01
 -1       754 0.00000E+00 6.72727E+00-9.37500E-01
 -1       755 0.00000E+00 6.72727E+00-1.12500E+00
 -1       756 0.00000E+00 6.72727E+00-1.31250E+00
 -1       757 0.00000E+00 6.90909E+00-1.87500E-01
 -1       758 0.00000E+00 6.90909E+00-3.75000E-01
 -1       759 0.00000E+00 6.90909E+00-5.62500E-01
 -1       760 0.00000E+00 6.90909E+00-7.50000E-01
 -1       761 0.00000E+00 6.90909E+00-9.37500E-01
 -1       762 0.00000E+00 6.90909E+00-1.12500E+00
 -1       763 0.00000E+00 6.90909E+00-1.31250E+00
 -1       764 0.00000E+00 7.09091E+00-1.87500E-01
 -1       765 0.00000E+00 7.09091E+00-3.75000E-01
 -1       766 0.00000E+00 7.09091E+00-5.62500E-01
 -1       767 0.00000E+00 7.09091E+00-7.50000E-01
 -1       768 0.00000E+00 7.09091E+00-9.37500E-01
 -1       769 0.00000E+00 7.09091E+00-1.12500E+00
 -1       770 0.00000E+00 7.09091E+00-1.31250E+00
 -1       771 0.00000E+00 7.27273E+00-1.87500E-01
 -1       772 0.00000E+00 7.27273E+00-3.75000E-01
 -1       773 0.00000E+00 7.27273E+00-5.62500E-01
 -1       774 0.00000E+00 7.27273E+00-7.50000E-01
 -1       775 0.00000E+00 7.27273E+00-9.37500E-01
 -1       776 0.00000E+00 7.27273E+00-1.12500E+00
 -1       777 0.00000E+00 7.27273E+00-1.31250E+00
 -1       778 0.00000E+00 7.45455E+00-1.87500E-01
 -1       779 0.00000E+00 7.45455E+00-3.75000E-01
 -1       780 0.00000E+00 7.45455E+00-5.62500E-01
 -1       781 0.00000E+00 7.45455E+00-7.50000E-01
 -1       782 0.00000E+00 7.45455E+00-9.37500E-01
 -1       783 0.00000E+00 7.45455E+00-1.12500E+00
 -1       784 0.00000E+00 7.45455E+00-1.31250E+00
 -1       785 0.00000E+00 7.63636E+00-1.87500E-01
 -1       786 0.00000E+00 7.63636E+00-3.75000E-01
 -1       787 0.00000E+00 7.63636E+00-5.62500E-01
 -1       788 0.00000E+00 7.63636E+00-7.50000E-01
 -1       789 0.00000E+00 7.63636E+00-9.37500E-01
 -1       790 0.00000E+00 7.63636E+00-1.12500E+00
 -1       791 0.00000E+00 7.63636E+00-1.31250E+00
 -1       792 0.00000E+00 7.81818E+00-1.87500E-01
 -1       793 0.00000E+00 7.81818E+00-3.75000E-01
 -1       794 0.00000E+00 7.81818E+00-5.62500E-01
 -1       795 0.00000E+00 7.81818E+00-7.50000E-01
 -1       796 0.00000E+00 7.81818E+00-9.37500E-01
 -1       797 0.00000E+00 7.81818E+00-1.12500E+00
 -1       798 0.00000E+00 7.81818E+00-1.31250E+00
 -1       799 1.66667E-01 1.81818E-01-1.50000E+00
 -1       800 3.33333E-01 1.81818E-01-1.50000E+00
 -1       801 5.00000E-01 1.81818E-01-1.50000E+00
 -1       802 6.66667E-01 1.81818E-01-1.50000E+00
 -1       803 8.33333E-01 1.81818E-01-1.50000E+00
 -1       804 1.66667E-01 3.63636E-01-1.50000E+00
 -1       805 3.33333E-01 3.63636E-01-1.50000E+00
 -1       806 5.00000E-01 3.63636E-01-1.50000E+00
 -1       807 6.66667E-01 3.63636E-01-1.50000E+00
 -1       808 8.33333E-01 3.63636E-01-1.50000E+00
 -1       809 1.66667E-01 5.45455E-01-1.50000E+00
 -1       810 3.33333E-01 5.45455E-01-1.50000E+00
 -1       811 5.00000E-01 5.45455E-01-1.50000E+00
 -1       812 6.66667E-01 5.45455E-01-1.50000E+00
 -1       813 8.33333E-01 5.45455E-01-1.50000E+00
 -1       814 1.66667E-01 7.27273E-01-1.50000E+00
 -1       815 3.33333E-01 7.27273E-01-1.50000E+00
 -1       816 5.00000E-01 7.27273E-01-1.50000E+00
 -1       817 6.66667E-01 7.27273E-01-1.50000E+00
 -1       818 8.33333E-01 7.27273E-01-1.50000E+00
 -1       819 1.66667E-01 9.09091E-01-1.50000E+00
 -1       820 3.33333E-01 9.09091E-01-1.50000E+00
 -1       821 5.00000E-01 9.09091E-01-1.50000E+00
 -1       822 6.66667E-01 9.09091E-01-1.50000E+00
 -1       823 8.33333E-01 9.09091E-01-1.50000E+00
 -1       824 1.66667E-01 1.09091E+00-1.50000E+00
 -1       825 3.33333E-01 1.09091E+00-1.50000E+00
 -1       826 5.00000E-01 1.09091E+00-1.50000E+00
 -1       827 6.66667E-01 1.09091E+00-1.50000E+00
 -1       828 8.33333E-01 1.09091E+00-1.50000E+00
 -1       829 1.66667E-01 1.27273E+00-1.50000E+00
 -1       830 3.33333E-01 1.27273E+00-1.50000E+00
 -1       831 5.00000E-01 1.27273E+00-1.50000E+00
 -1       832 6.66667E-01 1.27273E+00-1.50000E+00
 -1       833 8.33333E-01 1.27273E+00-1.50000E+00
 -1       834 1.66667E-01 1.45455E+00-1.50000E+00
 -1       835 3.33333E-01 1.45455E+00-1.50000E+00
 -1       836 5.00000E-01 1.45455E+00-1.50000E+00
 -1       837 6.66667E-01 1.45455E+00-1.50000E+00
 -1       838 8.33333E-01 1.45455E+00-1.50000E+00
 -1       839 1.66667E-01 1.63636E+00-1.50000E+00
 -1       840 3.33333E-01 1.63636E+00-1.50000E+00
 -1       841 5.00000E-01 1.63636E+00-1.50000E+00
 -1       842 6.66667E-01 1.63636E+00-1.50000E+00
 -1       843 8.33333E-01 1.63636E+00-1.50000E+00
 -1       844 1.66667E-01 1.81818E+00-1.50000E+00
 -1       845 3.33333E-01 1.81818E+00-1.50000E+00
 -1       846 5.00000E-01 1.81818E+00-1.50000E+00
 -1       847 6.66667E-01 1.81818E+00-1.50000E+00
 -1       848 8.33333E-01 1.81818E+00-1.50000E+00
 -1       849 1.66667E-01 2.00000E+00-1.50000E+00
 -1       850 3.33333E-01 2.00000E+00-1.50000E+00
 -1       851 5.00000E-01 2.00000E+00-1.50000E+00
 -1       852 6.66667E-01 2.00000E+00-1.50000E+00
 -1       853 8.33333E-01 2.00000E+00-1.50000E+00
 -1       854 1.66667E-01 2.18182E+00-1.50000E+00
 -1       855 3.33333E-01 2.18182E+00-1.50000E+00
 -1       856 5.00000E-01 2.18182E+00-1.50000E+00
 -1       857 6.66667E-01 2.18182E+00-1.50000E+00
 -1       858 8.33333E-01 2.18182E+00-1.50000E+00
 -1       859 1.66667E-01 2.36364E+00-1.50000E+00
 -1       860 3.33333E-01 2.36364E+00-1.50000E+00
 -1       861 5.00000E-01 2.36364E+00-1.50000E+00
 -1       862 6.66667E-01 2.36364E+00-1.50000E+00
 -1       863 8.33333E-01 2.36364E+00-1.50000E+00
 -1       864 1.66667E-01 2.54545E+00-1.50000E+00
 -1       865 3.33333E-01 2.54545E+00-1.50000E+00
 -1       866 5.00000E-01 2.54545E+00-1.50000E+00
 -1       867 6.66667E-01 2.54545E+00-1.50000E+00
 -1       868 8.33333E-01 2.54545E+00-1.50000E+00
 -1       869 1.66667E-01 2.72727E+00-1.50000E+00
 -1       870 3.33333E-01 2.72727E+00-1.50000E+00
 -1       871 5.00000E-01 2.72727E+00-1.50000E+00
 -1       872 6.66667E-01 2.72727E+00-1.50000E+00
 -1       873 8.33333E-01 2.72727E+00-1.50000E+00
 -1       874 1.66667E-01 2.90909E+00-1.50000E+00
 -1       875 3.33333E-01 2.90909E+00-1.50000E+00
 -1       876 5.00000E-01 2.90909E+00-1.50000E+00
 -1       877 6.66667E-01 2.90909E+00-1.50000E+00
 -1       878 8.33333E-01 2.90909E+00-1.50000E+00
 -1       879 1.66667E-01 3.09091E+00-1.50000E+00
 -1       880 3.33333E-01 3.09091E+00-1.50000E+00
 -1       881 5.00000E-01 3.09091E+00-1.50000E+00
 -1       882 6.66667E-01 3.09091E+00-1.50000E+00
 -1       883 8.33333E-01 3.09091E+00-1.50000E+00
 -1       884 1.66667E-01 3.27273E+00-1.50000E+00
 -1       885 3.33333E-01 3.27273E+00-1.50000E+00
 -1       886 5.00000E-01 3.27273E+00-1.50000E+00
 -1       887 6.66667E-01 3.27273E+00-1.50000E+00
 -1       888 8.33333E-01 3.27273E+00-1.50000E+00
 -1       889 1.66667E-01 3.45455E+00-1.50000E+00
 -1       890 3.33333E-01 3.45455E+00-1.50000E+00
 -1       891 5.00000E-01 3.45455E+00-1.50000E+00
 -1       892 6.66667E-01 3.45455E+00-1.50000E+00
 -1       893 8.33333E-01 3.45455E+00-1.50000E+00
 -1       894 1.66667E-01 3.63636E+00-1.50000E+00
 -1       895 3.33333E-01 3.63636E+00-1.50000E+00
 -1       896 5.00000E-01 3.63636E+00-1.50000E+00
 -1       897 6.66667E-01 3.63636E+00-1.50000E+00
 -1       898 8.33333E-01 3.63636E+00-1.50000E+00
 -1       899 1.66667E-01 3.81818E+00-1.50000E+00
 -1       900 3.33333E-01 3.81818E+00-1.50000E+00
 -1       901 5.00000E-01 3.81818E+00-1.50000E+00
 -1       902 6.66667E-01 3.81818E+00-1.50000E+00
 -1       903 8.33333E-01 3.81818E+00-1.50000E+00
 -1       904 1.66667E-01 4.00000E+00-1.50000E+00
 -1       905 3.33333E-01 4.00000E+00-1.50000E+00
 -1       906 5.00000E-01 4.00000E+00-1.50000E+00
 -1       907 6.66667E-01 4.00000E+00-1.50000E+00
 -1       908 8.33333E-01 4.00000E+00-1.50000E+00
 -1       909 1.66667E-01 4.18182E+00-1.50000E+00
 -1       910 3.33333E-01 4.18182E+00-1.50000E+00
 -1       911 5.00000E-01 4.18182E+00-1.50000E+00
 -1       912 6.66667E-01 4.18182E+00-1.50000E+00
 -1       913 8.33333E-01 4.18182E+00-1.50000E+00
 -1       914 1.66667E-01 4.36364E+00-1.50000E+00
 -1       915 3.33333E-01 4.36364E+00-1.50000E+00
 -1       916 5.00000E-01 4.36364E+00-1.50000E+00
 -1       917 6.66667E-01 4.36364E+00-1.50000E+00
 -1       918 8.33333E-01 4.36364E+00-1.50000E+00
 -1       919 1.66667E-01 4.54545E+00-1.50000E+00
 -1       920 3.33333E-01 4.54545E+00-1.50000E+00
 -1       921 5.00000E-01 4.54545E+00-1.50000E+00
 -1       922 6.66667E-01 4.54545E+00-1.50000E+00
 -1       923 8.33333E-01 4.54545E+00-1.50000E+00
 -1       924 1.66667E-01 4.72727E+00-1.50000E+00
 -1       925 3.33333E-01 4.72727E+00-1.50000E+00
 -1       926 5.00000E-01 4.72727E+00-1.50000E+00
 -1       927 6.66667E-01 4.72727E+00-1.50000E+00
 -1       928 8.33333E-01 4.72727E+00-1.50000E+00
 -1       929 1.66667E-01 4.90909E+00-1.50000E+00
 -1       930 3.33333E-01 4.90909E+00-1.50000E+00
 -1       931 5.00000E-01 4.90909E+00-1.50000E+00
 -1       932 6.66667E-01 4.90909E+00-1.50000E+00
 -1       933 8.33333E-01 4.90909E+00-1.50000E+00
 -1       934 1.66667E-01 5.09091E+00-1.50000E+00
 -1       935 3.33333E-01 5.09091E+00-1.50000E+00
 -1       936 5.00000E-01 5.09091E+00-1.50000E+00
 -1       937 6.66667E-01 5.09091E+00-1.50000E+00
 -1       938 8.33333E-01 5.09091E+00-1.50000E+00
 -1       939 1.66667E-01 5.27273E+00-1.50000E+00
 -1       940 3.33333E-01 5.27273E+00-1.50000E+00
 -1       941 5.00000E-01 5.27273E+00-1.50000E+00
 -1       942 6.66667E-01 5.27273E+00-1.50000E+00
 -1       943 8.33333E-01 5.27273E+00-1.50000E+00
 -1       944 1.66667E-01 5.45455E+00-1.50000E+00
 -1       945 3.33333E-01 5.45455E+00-1.50000E+00
 -1       946 5.00000E-01 5.45455E+00-1.50000E+00
 -1       947 6.66667E-01 5.45455E+00-1.50000E+00
 -1       948 8.33333E-01 5.45455E+00-1.50000E+00
 -1       949 1.66667E-01 5.63636E+00-1.50000E+00
 -1       950 3.33333E-01 5.63636E+00-1.50000E+00
 -1       951 5.00000E-01 5.63636E+00-1.50000E+00
 -1       952 6.66667E-01 5.63636E+00-1.50000E+00
 -1       953 8.33333E-01 5.63636E+00-1.50000E+00
 -1       954 1.66667E-01 5.81818E+00-1.50000E+00
 -1       955 3.33333E-01 5.81818E+00-1.50000E+00
 -1       956 5.00000E-01 5.81818E+00-1.50000E+00
 -1       957 6.66667E-01 5.81818E+00-1.50000E+00
 -1       958 8.33333E-01 5.81818E+00-1.50000E+00
 -1       959 1.66667E-01 6.00000E+00-1.50000E+00
 -1       960 3.33333E-01 6.00000E+00-1.50000E+00
 -1       961 5.00000E-01 6.00000E+00-1.50000E+00
 -1       962 6.66667E-01 6.00000E+00-1.50000E+00
 -1       963 8.33333E-01 6.00000E+00-1.50000E+00
 -1       964 1.66667E-01 6.18182E+00-1.50000E+00
 -1       965 3.33333E-01 6.18182E+00-1.50000E+00
 -1       966 5.00000E-01 6.18182E+00-1.50000E+00
 -1       967 6.66667E-01 6.18182E+00-1.50000E+00
 -1       968 8.33333E-01 6.18182E+00-1.50000E+00
 -1       969 1.66667E-01 6.36364E+00-1.50000E+00
 -1       970 3.33333E-01 6.36364E+00-1.50000E+00
 -1       971 5.00000E-01 6.36364E+00-1.50000E+00
 -1       972 6.66667E-01 6.36364E+00-1.50000E+00
 -1       973 8.33333E-01 6.36364E+00-1.50000E+00
 -1       974 1.66667E-01 6.54545E+00-1.50000E+00
 -1       975 3.33333E-01 6.54545E+00-1.50000E+00
 -1       976 5.00000E-01 6.54545E+00-1.50000E+00
 -1       977 6.66667E-01 6.54545E+00-1.50000E+00
 -1       978 8.33333E-01 6.54545E+00-1.50000E+00
 -1       979 1.66667E-01 6.72727E+00-1.50000E+00
 -1       980 3.33333E-01 6.72727E+00-1.50000E+00
 -1       981 5.00000E-01 6.72727E+00-1.50000E+00
 -1       982 6.66667E-01 6.72727E+00-1.50000E+00
 -1       983 8.33333E-01 6.72727E+00-1.50000E+00
 -1       984 1.66667E-01 6.90909E+00-1.50000E+00
 -1       985 3.33333E-01 6.90909E+00-1.50000E+00
 -1       986 5.00000E-01 6.90909E+00-1.50000E+00
 -1       987 6.66667E-01 6.90909E+00-1.50000E+00
 -1       988 8.33333E-01 6.90909E+00-1.50000E+00
 -1       989 1.66667E-01 7.09091E+00-1.50000E+00
 -1       990 3.33333E-01 7.09091E+00-1.50000E+00
 -1       991 5.00000E-01 7.09091E+00-1.50000E+00
 -1       992 6.66667E-01 7.09091E+00-1.50000E+00
 -1       993 8.33333E-01 7.09091E+00-1.50000E+00
 -1       994 1.66667E-01 7.27273E+00-1.50000E+00
 -1       995 3.33333E-01 7.27273E+00-1.50000E+00
 -1       996 5.00000E-01 7.27273E+00-1.50000E+00
 -1       997 6.66667E-01 7.27273E+00-1.50000E+00
 -1       998 8.33333E-01 7.27273E+00-1.50000E+00
 -1       999 1.66667E-01 7.45455E+00-1.50000E+00
 -1      1000 3.33333E-01 7.45455E+00-1.50000E+00
 -1      1001 5.00000E-01 7.45455E+00-1.50000E+00
 -1      1002 6.66667E-01 7.45455E+00-1.50000E+00
 -1      1003 8.33333E-01 7.45455E+00-1.50000E+00
 -1      1004 1.66667E-01 7.63636E+00-1.50000E+00
 -1      1005 3.33333E-01 7.63636E+00-1.50000E+00
 -1      1006 5.00000E-01 7.63636E+00-1.50000E+00
 -1      1007 6.66667E-01 7.63636E+00-1.50000E+00
 -1      1008 8.33333E-01 7.63636E+00-1.50000E+00
 -1      1009 1.66667E-01 7.81818E+00-1.50000E+00
 -1      1010 3.33333E-01 7.81818E+00-1.50000E+00
 -1      1011 5.00000E-01 7.81818E+00-1.50000E+00
 -1      1012 6.66667E-01 7.81818E+00-1.50000E+00
 -1      1013 8.33333E-01 7.81818E+00-1.50000E+00
 -1      1014 1.00000E+00 1.81818E-01-1.31250E+00
 -1      1015 1.00000E+00 1.81818E-01-1.12500E+00
 -1      1016 1.00000E+00 1.81818E-01-9.37500E-01
 -1      1017 1.00000E+00 1.81818E-01-7.50000E-01
 -1      1018 1.00000E+00 1.81818E-01-5.62500E-01
 -1      1019 1.00000E+00 1.81818E-01-3.75000E-01
 -1      1020 1.00000E+00 1.81818E-01-1.87500E-01
 -1      1021 1.00000E+00 3.63636E-01-1.31250E+00
 -1      1022 1.00000E+00 3.63636E-01-1.12500E+00
 -1      1023 1.00000E+00 3.63636E-01-9.37500E-01
 -1      1024 1.00000E+00 3.63636E-01-7.50000E-01
 -1      1025 1.00000E+00 3.63636E-01-5.62500E-01
 -1      1026 1.00000E+00 3.63636E-01-3.75000E-01
 -1      1027 1.00000E+00 3.63636E-01-1.87500E-01
 -1      1028 1.00000E+00 5.45455E-01-1.31250E+00
 -1      1029 1.00000E+00 5.45455E-01-1.12500E+00
 -1      1030 1.00000E+00 5.45455E-01-9.37500E-01
 -1      1031 1.00000E+00 5.45455E-01-7.50000E-01
 -1      1032 1.00000E+00 5.45455E-01-5.62500E-01
 -1      1033 1.00000E+00 5.45455E-01-3.75000E-01
 -1      1034 1.00000E+00 5.45455E-01-1.87500E-01
 -1      1035 1.00000E+00 7.27273E-01-1.31250E+00
 -1      1036 1.00000E+00 7.27273E-01-1.12500E+00
 -1      1037 1.00000E+00 7.27273E-01-9.37500E-01
 -1      1038 1.00000E+00 7.27273E-01-7.50000E-01
 -1      1039 1.00000E+00 7.27273E-01-5.62500E-01
 -1      1040 1.00000E+00 7.27273E-01-3.75000E-01
 -1      1041 1.00000E+00 7.27273E-01-1.87500E-01
 -1      1042 1.00000E+00 9.09091E-01-1.31250E+00
 -1      1043 1.00000E+00 9.09091E-01-1.12500E+00
 -1      1044 1.00000E+00 9.09091E-01-9.37500E-01
 -1      1045 1.00000E+00 9.09091E-01-7.50000E-01
 -1      1046 1.00000E+00 9.09091E-01-5.62500E-01
 -1      1047 1.00000E+00 9.09091E-01-3.75000E-01
 -1      1048 1.00000E+00 9.09091E-01-1.87500E-01
 -1      1049 1.00000E+00 1.09091E+00-1.31250E+00
 -1      1050 1.00000E+00 1.09091E+00-1.12500E+00
 -1      1051 1.00000E+00 1.09091E+00-9.37500E-01
 -1      1052 1.00000E+00 1.09091E+00-7.50000E-01
 -1      1053 1.00000E+00 1.09091E+00-5.62500E-01
 -1      1054 1.00000E+00 1.09091E+00-3.75000E-01
 -1      1055 1.00000E+00 1.09091E+00-1.87500E-01
 -1      1056 1.00000E+00 1.27273E+00-1.31250E+00
 -1      1057 1.00000E+00 1.27273E+00-1.12500E+00
 -1      1058 1.00000E+00 1.27273E+00-9.37500E-01
 -1      1059 1.00000E+00 1.27273E+00-7.50000E-01
 -1      1060 1.00000E+00 1.27273E+00-5.62500E-01
 -1      1061 1.00000E+00 1.27273E+00-3.75000E-01
 -1      1062 1.00000E+00 1.27273E+00-1.87500E-01
 -1      1063 1.00000E+00 1.45455E+00-1.31250E+00
 -1      1064 1.00000E+00 1.45455E+00-1.12500E+00
 -1      1065 1.00000E+00 1.45455E+00-9.37500E-01
 -1      1066 1.00000E+00 1.45455E+00-7.50000E-01
 -1      1067 1.00000E+00 1.45455E+00-5.62500E-01
 -1      1068 1.00000E+00 1.45455E+00-3.75000E-01
 -1      1069 1.00000E+00 1.45455E+00-1.87500E-01
 -1      1070 1.00000E+00 1.63636E+00-1.31250E+00
 -1      1071 1.00000E+00 1.63636E+00-1.12500E+00
 -1      1072 1.00000E+00 1.63636E+00-9.37500E-01
 -1      1073 1.00000E+00 1.63636E+00-7.50000E-01
 -1      1074 1.00000E+00 1.63636E+00-5.62500E-01
 -1      1075 1.00000E+00 1.63636E+00-3.75000E-01
 -1      1076 1.00000E+00 1.63636E+00-1.87500E-01
 -1      1077 1.00000E+00 1.81818E+00-1.31250E+00
 -1      1078 1.00000E+00 1.81818E+00-1.12500E+00
 -1      1079 1.00000E+00 1.81818E+00-9.37500E-01
 -1      1080 1.00000E+00 1.81818E+00-7.50000E-01
 -1      1081 1.00000E+00 1.81818E+00-5.62500E-01
 -1      1082 1.00000E+00 1.81818E+00-3.75000E-01
 -1      1083 1.00000E+00 1.81818E+00-1.87500E-01
 -1      1084 1.00000E+00 2.00000E+00-1.31250E+00
 -1      1085 1.00000E+00 2.00000E+00-1.12500E+00
 -1      1086 1.00000E+00 2.00000E+00-9.37500E-01
 -1      1087 1.00000E+00 2.00000E+00-7.50000E-01
 -1      1088 1.00000E+00 2.00000E+00-5.62500E-01
 -1      1089 1.00000E+00 2.00000E+00-3.75000E-01
 -1      1090 1.00000E+00 2.00000E+00-1.87500E-01
 -1      1091 1.00000E+00 2.18182E+00-1.31250E+00
 -1      1092 1.00000E+00 2.18182E+00-1.12500E+00
 -1      1093 1.00000E+00 2.18182E+00-9.37500E-01
 -1      1094 1.00000E+00 2.18182E+00-7.50000E-01
 -1      1095 1.00000E+00 2.18182E+00-5.62500E-01
 -1      1096 1.00000E+00 2.18182E+00-3.75000E-01
 -1      1097 1.00000E+00 2.18182E+00-1.87500E-01
 -1      1098 1.00000E+00 2.36364E+00-1.31250E+00
 -1      1099 1.00000E+00 2.36364E+00-1.12500E+00
 -1      1100 1.00000E+00 2.36364E+00-9.37500E-01
 -1      1101 1.00000E+00 2.36364E+00-7.50000E-01
 -1      1102 1.00000E+00 2.36364E+00-5.62500E-01
 -1      1103 1.00000E+00 2.36364E+00-3.75000E-01
 -1      1104 1.00000E+00 2.36364E+00-1.87500E-01
 -1      1105 1.00000E+00 2.54545E+00-1.31250E+00
 -1      1106 1.00000E+00 2.54545E+00-1.12500E+00
 -1      1107 1.00000E+00 2.54545E+00-9.37500E-01
 -1      1108 1.00000E+00 2.54545E+00-7.50000E-01
 -1      1109 1.00000E+00 2.54545E+00-5.62500E-01
 -1      1110 1.00000E+00 2.54545E+00-3.75000E-01
 -1      1111 1.00000E+00 2.54545E+00-1.87500E-01
 -1      1112 1.00000E+00 2.72727E+00-1.31250E+00
 -1      1113 1.00000E+00 2.72727E+00-1.12500E+00
 -1      1114 1.00000E+00 2.72727E+00-9.37500E-01
 -1      1115 1.00000E+00 2.72727E+00-7.50000E-01
 -1      1116 1.00000E+00 2.72727E+00-5.62500E-01
 -1      1117 1.00000E+00 2.72727E+00-3.75000E-01
 -1      1118 1.00000E+00 2.72727E+00-1.87500E-01
 -1      1119 1.00000E+00 2.90909E+00-1.31250E+00
 -1      1120 1.00000E+00 2.90909E+00-1.12500E+00
 -1      1121 1.00000E+00 2.90909E+00-9.37500E-01
 -1      1122 1.00000E+00 2.90909E+00-7.50000E-01
 -1      1123 1.00000E+00 2.90909E+00-5.62500E-01
 -1      1124 1.00000E+00 2.90909E+00-3.75000E-01
 -1      1125 1.00000E+00 2.90909E+00-1.87500E-01
 -1      1126 1.00000E+00 3.09091E+00-1.31250E+00
 -1      1127 1.00000E+00 3.09091E+00-1.12500E+00
 -1      1128 1.00000E+00 3.09091E+00-9.37500E-01
 -1      1129 1.00000E+00 3.09091E+00-7.50000E-01
 -1      1130 1.00000E+00 3.09091E+00-5.62500E-01
 -1      1131 1.00000E+00 3.09091E+00-3.75000E-01
 -1      1132 1.00000E+00 3.09091E+00-1.87500E-01
 -1      1133 1.00000E+00 3.27273E+00-1.31250E+00
 -1      1134 1.00000E+00 3.27273E+00-1.12500E+00
 -1      1135 1.00000E+00 3.27273E+00-9.37500E-01
 -1      1136 1.00000E+00 3.27273E+00-7.50000E-01
 -1      1137 1.00000E+00 3.27273E+00-5.62500E-01
 -1      1138 1.00000E+00 3.27273E+00-3.75000E-01
 -1      1139 1.00000E+00 3.27273E+00-1.87500E-01
 -1      1140 1.00000E+00 3.45455E+00-1.31250E+00
 -1      1141 1.00000E+00 3.45455E+00-1.12500E+00
 -1      1142 1.00000E+00 3.45455E+00-9.37500E-01
 -1      1143 1.00000E+00 3.45455E+00-7.50000E-01
 -1      1144 1.00000E+00 3.45455E+00-5.62500E-01
 -1      1145 1.00000E+00 3.45455E+00-3.75000E-01
 -1      1146 1.00000E+00 3.45455E+00-1.87500E-01
 -1      1147 1.00000E+00 3.63636E+00-1.31250E+00
 -1      1148 1.00000E+00 3.63636E+00-1.12500E+00
 -1      1149 1.00000E+00 3.63636E+00-9.37500E-01
 -1      1150 1.00000E+00 3.63636E+00-7.50000E-01
 -1      1151 1.00000E+00 3.63636E+00-5.62500E-01
 -1      1152 1.00000E+00 3.63636E+00-3.75000E-01
 -1      1153 1.00000E+00 3.63636E+00-1.87500E-01
 -1      1154 1.00000E+00 3.81818E+00-1.31250E+00
 -1      1155 1.00000E+00 3.81818E+00-1.12500E+00
 -1      1156 1.00000E+00 3.81818E+00-9.37500E-01
 -1      1157 1.00000E+00 3.81818E+00-7.50000E-01
 -1      1158 1.00000E+00 3.81818E+00-5.62500E-01
 -1      1159 1.00000E+00 3.81818E+00-3.75000E-01
 -1      1160 1.00000E+00 3.81818E+00-1.87500E-01
 -1      1161 1.00000E+00 4.00000E+00-1.31250E+00
 -1      1162 1.00000E+00 4.00000E+00-1.12500E+00
 -1      1163 1.00000E+00 4.00000E+00-9.37500E-01
 -1      1164 1.00000E+00 4.00000E+00-7.50000E-01
 -1      1165 1.00000E+00 4.00000E+00-5.62500E-01
 -1      1166 1.00000E+00 4.00000E+00-3.75000E-01
 -1      1167 1.00000E+00 4.00000E+00-1.87500E-01
 -1      1168 1.00000E+00 4.18182E+00-1.31250E+00
 -1      1169 1.00000E+00 4.18182E+00-1.12500E+00
 -1      1170 1.00000E+00 4.18182E+00-9.37500E-01
 -1      1171 1.00000E+00 4.18182E+00-7.50000E-01
 -1      1172 1.00000E+00 4.18182E+00-5.62500E-01
 -1      1173 1.00000E+00 4.18182E+00-3.75000E-01
 -1      1174 1.00000E+00 4.18182E+00-1.87500E-01
 -1      1175 1.00000E+00 4.36364E+00-1.31250E+00
 -1      1176 1.00000E+00 4.36364E+00-1.12500E+00
 -1      1177 1.00000E+00 4.36364E+00-9.37500E-01
 -1      1178 1.00000E+00 4.36364E+00-7.50000E-01
 -1      1179 1.00000E+00 4.36364E+00-5.62500E-01
 -1      1180 1.00000E+00 4.36364E+00-3.75000E-01
 -1      1181 1.00000E+00 4.36364E+00-1.87500E-01
 -1      1182 1.00000E+00 4.54545E+00-1.31250E+00
 -1      1183 1.00000E+00 4.54545E+00-1.12500E+00
 -1      1184 1.00000E+00 4.54545E+00-9.37500E-01
 -1      1185 1.00000E+00 4.54545E+00-7.50000E-01
 -1      1186 1.00000E+00 4.54545E+00-5.62500E-01
 -1      1187 1.00000E+00 4.54545E+00-3.75000E-01
 -1      1188 1.00000E+00 4.54545E+00-1.87500E-01
 -1      1189 1.00000E+00 4.72727E+00-1.31250E+00
 -1      1190 1.00000E+00 4.72727E+00-1.12500E+00
 -1      1191 1.00000E+00 4.72727E+00-9.37500E-01
 -1      1192 1.00000E+00 4.72727E+00-7.50000E-01
 -1      1193 1.00000E+00 4.72727E+00-5.62500E-01
 -1      1194 1.00000E+00 4.72727E+00-3.75000E-01
 -1      1195 1.00000E+00 4.72727E+00-1.87500E-01
 -1      1196 1.00000E+00 4.90909E+00-1.31250E+00
 -1      1197 1.00000E+00 4.90909E+00-1.12500E+00
 -1      1198 1.00000E+00 4.90909E+00-9.37500E-01
 -1      1199 1.00000E+00 4.90909E+00-7.50000E-01
 -1      1200 1.00000E+00 4.90909E+00-5.62500E-01
 -1      1201 1.00000E+00 4.90909E+00-3.75000E-01
 -1      1202 1.00000E+00 4.90909E+00-1.87500E-01
 -1      1203 1.00000E+00 5.09091E+00-1.31250E+00
 -1      1204 1.00000E+00 5.09091E+00-1.12500E+00
 -1      1205 1.00000E+00 5.09091E+00-9.37500E-01
 -1      1206 1.00000E+00 5.09091E+00-7.50000E-01
 -1      1207 1.00000E+00 5.09091E+00-5.62500E-01
 -1      1208 1.00000E+00 5.09091E+00-3.75000E-01
 -1      1209 1.00000E+00 5.09091E+00-1.87500E-01
 -1      1210 1.00000E+00 5.27273E+00-1.31250E+00
 -1      1211 1.00000E+00 5.27273E+00-1.12500E+00
 -1      1212 1.00000E+00 5.27273E+00-9.37500E-01
 -1      1213 1.00000E+00 5.27273E+00-7.50000E-01
 -1      1214 1.00000E+00 5.27273E+00-5.62500E-01
 -1      1215 1.00000E+00 5.27273E+00-3.75000E-01
 -1      1216 1.00000E+00 5.27273E+00-1.87500E-01
 -1      1217 1.00000E+00 5.45455E+00-1.31250E+00
 -1      1218 1.00000E+00 5.45455E+00-1.12500E+00
 -1      1219 1.00000E+00 5.45455E+00-9.37500E-01
 -1      1220 1.00000E+00 5.45455E+00-7.50000E-01
 -1      1221 1.00000E+00 5.45455E+00-5.62500E-01
 -1      1222 1.00000E+00 5.45455E+00-3.75000E-01
 -1      1223 1.00000E+00 5.45455E+00-1.87500E-01
 -1      1224 1.00000E+00 5.63636E+00-1.31250E+00
 -1      1225 1.00000E+00 5.63636E+00-1.12500E+00
 -1      1226 1.00000E+00 5.63636E+00-9.37500E-01
 -1      1227 1.00000E+00 5.63636E+00-7.50000E-01
 -1      1228 1.00000E+00 5.63636E+00-5.62500E-01
 -1      1229 1.00000E+00 5.63636E+00-3.75000E-01
 -1      1230 1.00000E+00 5.63636E+00-1.87500E-01
 -1      1231 1.00000E+00 5.81818E+00-1.31250E+00
 -1      1232 1.00000E+00 5.81818E+00-1.12500E+00
 -1      1233 1.00000E+00 5.81818E+00-9.37500E-01
 -1      1234 1.00000E+00 5.81818E+00-7.50000E-01
 -1      1235 1.00000E+00 5.81818E+00-5.62500E-01
 -1      1236 1.00000E+00 5.81818E+00-3.75000E-01
 -1      1237 1.00000E+00 5.81818E+00-1.87500E-01
 -1      1238 1.00000E+00 6.00000E+00-1.31250E+00
 -1      1239 1.00000E+00 6.00000E+00-1.12500E+00
 -1      1240 1.00000E+00 6.00000E+00-9.37500E-01
 -1      1241 1.00000E+00 6.00000E+00-7.50000E-01
 -1      1242 1.00000E+00 6.00000E+00-5.62500E-01
 -1      1243 1.00000E+00 6.00000E+00-3.75000E-01
 -1      1244 1.00000E+00 6.00000E+00-1.87500E-01
 -1      1245 1.00000E+00 6.18182E+00-1.31250E+00
 -1      1246 1.00000E+00 6.18182E+00-1.12500E+00
 -1      1247 1.00000E+00 6.18182E+00-9.37500E-01
 -1      1248 1.00000E+00 6.18182E+00-7.50000E-01
 -1      1249 1.00000E+00 6.18182E+00-5.62500E-01
 -1      1250 1.00000E+00 6.18182E+00-3.75000E-01
 -1      1251 1.00000E+00 6.18182E+00-1.87500E-01
 -1      1252 1.00000E+00 6.36364E+00-1.31250E+00
 -1      1253 1.00000E+00 6.36364E+00-1.12500E+00
 -1      1254 1.00000E+00 6.36364E+00-9.37500E-01
 -1      1255 1.00000E+00 6.36364E+00-7.50000E-01
 -1      1256 1.00000E+00 6.36364E+00-5.62500E-01
 -1      1257 1.00000E+00 6.36364E+00-3.75000E-01
 -1      1258 1.00000E+00 6.36364E+00-1.87500E-01
 -1      1259 1.00000E+00 6.54545E+00-1.31250E+00
 -1      1260 1.00000E+00 6.54545E+00-1.12500E+00
 -1      1261 1.00000E+00 6.54545E+00-9.37500E-01
 -1      1262 1.00000E+00 6.54545E+00-7.50000E-01
 -1      1263 1.00000E+00 6.54545E+00-5.62500E-01
 -1      1264 1.00000E+00 6.54545E+00-3.75000E-01
 -1      1265 1.00000E+00 6.54545E+00-1.87500E-01
 -1      1266 1.00000E+00 6.72727E+00-1.31250E+00
 -1      1267 1.00000E+00 6.72727E+00-1.12500E+00
 -1      1268 1.00000E+00 6.72727E+00-9.37500E-01
 -1      1269 1.00000E+00 6.72727E+00-7.50000E-01
 -1      1270 1.00000E+00 6.72727E+00-5.62500E-01
 -1      1271 1.00000E+00 6.72727E+00-3.75000E-01
 -1      1272 1.00000E+00 6.72727E+00-1.87500E-01
 -1      1273 1.00000E+00 6.90909E+00-1.31250E+00
 -1      1274 1.00000E+00 6.90909E+00-1.12500E+00
 -1      1275 1.00000E+00 6.90909E+00-9.37500E-01
 -1      1276 1.00000E+00 6.90909E+00-7.50000E-01
 -1      1277 1.00000E+00 6.90909E+00-5.62500E-01
 -1      1278 1.00000E+00 6.90909E+00-3.75000E-01
 -1      1279 1.00000E+00 6.90909E+00-1.87500E-01
 -1      1280 1.00000E+00 7.09091E+00-1.31250E+00
 -1      1281 1.00000E+00 7.09091E+00-1.12500E+00
 -1      1282 1.00000E+00 7.09091E+00-9.37500E-01
 -1      1283 1.00000E+00 7.09091E+00-7.50000E-01
 -1      1284 1.00000E+00 7.09091E+00-5.62500E-01
 -1      1285 1.00000E+00 7.09091E+00-3.75000E-01
 -1      1286 1.00000E+00 7.09091E+00-1.87500E-01
 -1      1287 1.00000E+00 7.27273E+00-1.31250E+00
 -1      1288 1.00000E+00 7.27273E+00-1.12500E+00
 -1      1289 1.00000E+00 7.27273E+00-9.37500E-01
 -1      1290 1.00000E+00 7.27273E+00-7.50000E-01
 -1      1291 1.00000E+00 7.27273E+00-5.62500E-01
 -1      1292 1.00000E+00 7.27273E+00-3.75000E-01
 -1      1293 1.00000E+00 7.27273E+00-1.87500E-01
 -1      1294 1.00000E+00 7.45455E+00-1.31250E+00
 -1      1295 1.00000E+00 7.45455E+00-1.12500E+00
 -1      1296 1.00000E+00 7.45455E+00-9.37500E-01
 -1      1297 1.00000E+00 7.45455E+00-7.50000E-01
 -1      1298 1.00000E+00 7.45455E+00-5.62500E-01
 -1      1299 1.00000E+00 7.45455E+00-3.75000E-01
 -1      1300 1.00000E+00 7.45455E+00-1.87500E-01
 -1      1301 1.00000E+00 7.63636E+00-1.31250E+00
 -1      1302 1.00000E+00 7.63636E+00-1.12500E+00
 -1      1303 1.00000E+00 7.63636E+00-9.37500E-01
 -1      1304 1.00000E+00 7.63636E+00-7.50000E-01
 -1      1305 1.00000E+00 7.63636E+00-5.62500E-01
 -1      1306 1.00000E+00 7.63636E+00-3.75000E-01
 -1      1307 1.00000E+00 7.63636E+00-1.87500E-01
 -1      1308 1.00000E+00 7.81818E+00-1.31250E+00
 -1      1309 1.00000E+00 7.81818E+00-1.12500E+00
 -1      1310 1.00000E+00 7.81818E+00-9.37500E-01
 -1      1311 1.00000E+00 7.81818E+00-7.50000E-01
 -1      1312 1.00000E+00 7.81818E+00-5.62500E-01
 -1      1313 1.00000E+00 7.81818E+00-3.75000E-01
 -1      1314 1.00000E+00 7.81818E+00-1.87500E-01
 -1      1315 8.33333E-01 8.00000E+00-1.87500E-01
 -1      1316 6.66667E-01 8.00000E+00-1.87500E-01
 -1      1317 5.00000E-01 8.00000E+00-1.87500E-01
 -1      1318 3.33333E-01 8.00000E+00-1.87500E-01
 -1      1319 1.66667E-01 8.00000E+00-1.87500E-01
 -1      1320 8.33333E-01 8.00000E+00-3.75000E-01
 -1      1321 6.66667E-01 8.00000E+00-3.75000E-01
 -1      1322 5.00000E-01 8.00000E+00-3.75000E-01
 -1      1323 3.33333E-01 8.00000E+00-3.75000E-01
 -1      1324 1.66667E-01 8.00000E+00-3.75000E-01
 -1      1325 8.33333E-01 8.00000E+00-5.62500E-01
 -1      1326 6.66667E-01 8.00000E+00-5.62500E-01
 -1      1327 5.00000E-01 8.00000E+00-5.62500E-01
 -1      1328 3.33333E-01 8.00000E+00-5.62500E-01
 -1      1329 1.66667E-01 8.00000E+00-5.62500E-01
 -1      1330 8.33333E-01 8.00000E+00-7.50000E-01
 -1      1331 6.66667E-01 8.00000E+00-7.50000E-01
 -1      1332 5.00000E-01 8.00000E+00-7.50000E-01
 -1      1333 3.33333E-01 8.00000E+00-7.50000E-01
 -1      1334 1.66667E-01 8.00000E+00-7.50000E-01
 -1      1335 8.33333E-01 8.00000E+00-9.37500E-01
 -1      1336 6.66667E-01 8.00000E+00-9.37500E-01
 -1      1337 5.00000E-01 8.00000E+00-9.37500E-01
 -1      1338 3.33333E-01 8.00000E+00-9.37500E-01
 -1      1339 1.66667E-01 8.00000E+00-9.37500E-01
 -1      1340 8.33333E-01 8.00000E+00-1.12500E+00
 -1      1341 6.66667E-01 8.00000E+00-1.12500E+00
 -1      1342 5.00000E-01 8.00000E+00-1.12500E+00
 -1      1343 3.33333E-01 8.00000E+00-1.12500E+00
 -1      1344 1.66667E-01 8.00000E+00-1.12500E+00
 -1      1345 8.33333E-01 8.00000E+00-1.31250E+00
 -1      1346 6.66667E-01 8.00000E+00-1.31250E+00
 -1      1347 5.00000E-01 8.00000E+00-1.31250E+00
 -1      1348 3.33333E-01 8.00000E+00-1.31250E+00
 -1      1349 1.66667E-01 8.00000E+00-1.31250E+00
 -1      1350 5.00000E-01 5.20000E+00-1.05000E+00
 -1      1351 5.00000E-01 7.00000E+00-4.50000E-01
 -1      1352 8.00000E-01 1.90000E+00-1.50000E-01
 -1      1353 5.00000E-01 7.00000E-01-1.35000E+00
 -1      1354 5.00000E-01 2.50000E+00-7.50000E-01
 -1      1355 2.00000E-01 1.00000E+00-1.35000E+00
 -1      1356 8.00000E-01 3.10000E+00-1.35000E+00
 -1      1357 2.00000E-01 6.70000E+00-4.50000E-01
 -1      1358 8.00000E-01 4.90000E+00-7.50000E-01
 -1      1359 5.00000E-01 3.40000E+00-1.50000E-01
 -1      1360 2.00000E-01 2.20000E+00-1.50000E-01
 -1      1361 8.00000E-01 4.00000E-01-4.50000E-01
 -1      1362 8.00000E-01 5.80000E+00-1.50000E-01
 -1      1363 5.00000E-01 4.60000E+00-1.35000E+00
 -1      1364 5.00000E-01 6.40000E+00-7.50000E-01
 -1      1365 2.00000E-01 3.10000E+00-7.50000E-01
 -1      1366 2.00000E-01 4.90000E+00-1.35000E+00
 -1      1367 8.00000E-01 7.00000E+00-1.35000E+00
 -1      1368 5.00000E-01 7.30000E+00-1.50000E-01
 -1      1369 2.00000E-01 4.00000E-01-1.05000E+00
 -1      1370 8.00000E-01 2.50000E+00-1.05000E+00
 -1      1371 2.00000E-01 6.10000E+00-1.50000E-01
 -1      1372 8.00000E-01 4.30000E+00-4.50000E-01
 -1      1373 5.00000E-01 1.00000E+00-1.05000E+00
 -1      1374 5.00000E-01 2.80000E+00-4.50000E-01
 -1      1375 2.00000E-01 7.00000E+00-7.50000E-01
 -1      1376 2.00000E-01 2.50000E+00-4.50000E-01
 -1      1377 8.00000E-01 7.00000E-01-7.50000E-01
 -1      1378 2.00000E-01 4.30000E+00-1.05000E+00
 -1      1379 8.00000E-01 6.40000E+00-1.05000E+00
 -1      1380 5.00000E-01 4.90000E+00-1.05000E+00
 -1      1381 5.00000E-01 6.70000E+00-4.50000E-01
 -1      1382 8.00000E-01 1.60000E+00-1.50000E-01
 -1      1383 5.00000E-01 4.00000E-01-1.35000E+00
 -1      1384 5.00000E-01 2.20000E+00-7.50000E-01
 -1      1385 2.00000E-01 7.00000E-01-1.35000E+00
 -1      1386 8.00000E-01 2.80000E+00-1.35000E+00
 -1      1387 2.00000E-01 6.40000E+00-4.50000E-01
 -1      1388 8.00000E-01 4.60000E+00-7.50000E-01
 -1      1389 5.00000E-01 3.10000E+00-1.50000E-01
 -1      1390 2.00000E-01 1.90000E+00-1.50000E-01
 -1      1391 8.00000E-01 5.50000E+00-1.50000E-01
 -1      1392 5.00000E-01 4.30000E+00-1.35000E+00
 -1      1393 5.00000E-01 6.10000E+00-7.50000E-01
 -1      1394 2.00000E-01 2.80000E+00-7.50000E-01
 -1      1395 2.00000E-01 4.60000E+00-1.35000E+00
 -1      1396 8.00000E-01 6.70000E+00-1.35000E+00
 -1      1397 5.00000E-01 7.00000E+00-1.50000E-01
 -1      1398 8.00000E-01 2.20000E+00-1.05000E+00
 -1      1399 2.00000E-01 5.80000E+00-1.50000E-01
 -1      1400 8.00000E-01 4.00000E+00-4.50000E-01
 -1      1401 5.00000E-01 7.00000E-01-1.05000E+00
 -1      1402 5.00000E-01 2.50000E+00-4.50000E-01
 -1      1403 2.00000E-01 6.70000E+00-7.50000E-01
 -1      1404 2.00000E-01 2.20000E+00-4.50000E-01
 -1      1405 8.00000E-01 4.00000E-01-7.50000E-01
 -1      1406 2.00000E-01 4.00000E+00-1.05000E+00
 -1      1407 8.00000E-01 6.10000E+00-1.05000E+00
 -1      1408 5.00000E-01 4.60000E+00-1.05000E+00
 -1      1409 5.00000E-01 6.40000E+00-4.50000E-01
 -1      1410 8.00000E-01 1.30000E+00-1.50000E-01
 -1      1411 5.00000E-01 1.90000E+00-7.50000E-01
 -1      1412 2.00000E-01 4.00000E-01-1.35000E+00
 -1      1413 8.00000E-01 2.50000E+00-1.35000E+00
 -1      1414 2.00000E-01 6.10000E+00-4.50000E-01
 -1      1415 8.00000E-01 4.30000E+00-7.50000E-01
 -1      1416 5.00000E-01 2.80000E+00-1.50000E-01
 -1      1417 2.00000E-01 1.60000E+00-1.50000E-01
 -1      1418 8.00000E-01 5.20000E+00-1.50000E-01
 -1      1419 5.00000E-01 4.00000E+00-1.35000E+00
 -1      1420 5.00000E-01 5.80000E+00-7.50000E-01
 -1      1421 2.00000E-01 2.50000E+00-7.50000E-01
 -1      1422 2.00000E-01 4.30000E+00-1.35000E+00
 -1      1423 8.00000E-01 6.40000E+00-1.35000E+00
 -1      1424 5.00000E-01 6.70000E+00-1.50000E-01
 -1      1425 8.00000E-01 1.90000E+00-1.05000E+00
 -1      1426 2.00000E-01 5.50000E+00-1.50000E-01
 -1      1427 8.00000E-01 3.70000E+00-4.50000E-01
 -1      1428 5.00000E-01 4.00000E-01-1.05000E+00
 -1      1429 5.00000E-01 2.20000E+00-4.50000E-01
 -1      1430 2.00000E-01 6.40000E+00-7.50000E-01
 -1      1431 2.00000E-01 1.90000E+00-4.50000E-01
 -1      1432 2.00000E-01 3.70000E+00-1.05000E+00
 -1      1433 8.00000E-01 5.80000E+00-1.05000E+00
 -1      1434 8.00000E-01 7.60000E+00-4.50000E-01
 -1      1435 5.00000E-01 4.30000E+00-1.05000E+00
 -1      1436 5.00000E-01 6.10000E+00-4.50000E-01
 -1      1437 8.00000E-01 1.00000E+00-1.50000E-01
 -1      1438 5.00000E-01 1.60000E+00-7.50000E-01
 -1      1439 8.00000E-01 2.20000E+00-1.35000E+00
 -1      1440 2.00000E-01 5.80000E+00-4.50000E-01
 -1      1441 8.00000E-01 4.00000E+00-7.50000E-01
 -1      1442 2.00000E-01 7.60000E+00-1.05000E+00
 -1      1443 5.00000E-01 2.50000E+00-1.50000E-01
 -1      1444 2.00000E-01 1.30000E+00-1.50000E-01
 -1      1445 8.00000E-01 4.90000E+00-1.50000E-01
 -1      1446 5.00000E-01 3.70000E+00-1.35000E+00
 -1      1447 5.00000E-01 5.50000E+00-7.50000E-01
 -1      1448 2.00000E-01 2.20000E+00-7.50000E-01
 -1      1449 2.00000E-01 4.00000E+00-1.35000E+00
 -1      1450 8.00000E-01 6.10000E+00-1.35000E+00
 -1      1451 5.00000E-01 6.40000E+00-1.50000E-01
 -1      1452 8.00000E-01 1.60000E+00-1.05000E+00
 -1      1453 2.00000E-01 5.20000E+00-1.50000E-01
 -1      1454 8.00000E-01 3.40000E+00-4.50000E-01
 -1      1455 5.00000E-01 1.90000E+00-4.50000E-01
 -1      1456 5.00000E-01 7.60000E+00-1.35000E+00
 -1      1457 2.00000E-01 6.10000E+00-7.50000E-01
 -1      1458 2.00000E-01 1.60000E+00-4.50000E-01
 -1      1459 2.00000E-01 3.40000E+00-1.05000E+00
 -1      1460 8.00000E-01 5.50000E+00-1.05000E+00
 -1      1461 8.00000E-01 7.30000E+00-4.50000E-01
 -1      1462 5.00000E-01 4.00000E+00-1.05000E+00
 -1      1463 5.00000E-01 5.80000E+00-4.50000E-01
 -1      1464 8.00000E-01 7.00000E-01-1.50000E-01
 -1      1465 5.00000E-01 1.30000E+00-7.50000E-01
 -1      1466 8.00000E-01 1.90000E+00-1.35000E+00
 -1      1467 2.00000E-01 5.50000E+00-4.50000E-01
 -1      1468 8.00000E-01 3.70000E+00-7.50000E-01
 -1      1469 2.00000E-01 7.30000E+00-1.05000E+00
 -1      1470 5.00000E-01 2.20000E+00-1.50000E-01
 -1      1471 2.00000E-01 1.00000E+00-1.50000E-01
 -1      1472 8.00000E-01 4.60000E+00-1.50000E-01
 -1      1473 5.00000E-01 3.40000E+00-1.35000E+00
 -1      1474 5.00000E-01 5.20000E+00-7.50000E-01
 -1      1475 2.00000E-01 1.90000E+00-7.50000E-01
 -1      1476 2.00000E-01 3.70000E+00-1.35000E+00
 -1      1477 8.00000E-01 5.80000E+00-1.35000E+00
 -1      1478 8.00000E-01 7.60000E+00-7.50000E-01
 -1      1479 5.00000E-01 6.10000E+00-1.50000E-01
 -1      1480 8.00000E-01 1.30000E+00-1.05000E+00
 -1      1481 2.00000E-01 4.90000E+00-1.50000E-01
 -1      1482 8.00000E-01 3.10000E+00-4.50000E-01
 -1      1483 5.00000E-01 1.60000E+00-4.50000E-01
 -1      1484 5.00000E-01 7.30000E+00-1.35000E+00
 -1      1485 2.00000E-01 5.80000E+00-7.50000E-01
 -1      1486 2.00000E-01 7.60000E+00-1.35000E+00
 -1      1487 2.00000E-01 1.30000E+00-4.50000E-01
 -1      1488 2.00000E-01 3.10000E+00-1.05000E+00
 -1      1489 8.00000E-01 5.20000E+00-1.05000E+00
 -1      1490 8.00000E-01 7.00000E+00-4.50000E-01
 -1      1491 5.00000E-01 3.70000E+00-1.05000E+00
 -1      1492 5.00000E-01 5.50000E+00-4.50000E-01
 -1      1493 8.00000E-01 4.00000E-01-1.50000E-01
 -1      1494 5.00000E-01 1.00000E+00-7.50000E-01
 -1      1495 8.00000E-01 1.60000E+00-1.35000E+00
 -1      1496 2.00000E-01 5.20000E+00-4.50000E-01
 -1      1497 8.00000E-01 3.40000E+00-7.50000E-01
 -1      1498 2.00000E-01 7.00000E+00-1.05000E+00
 -1      1499 5.00000E-01 1.90000E+00-1.50000E-01
 -1      1500 5.00000E-01 7.60000E+00-1.05000E+00
 -1      1501 2.00000E-01 7.00000E-01-1.50000E-01
 -1      1502 8.00000E-01 4.30000E+00-1.50000E-01
 -1      1503 5.00000E-01 3.10000E+00-1.35000E+00
 -1      1504 5.00000E-01 4.90000E+00-7.50000E-01
 -1      1505 2.00000E-01 1.60000E+00-7.50000E-01
 -1      1506 2.00000E-01 3.40000E+00-1.35000E+00
 -1      1507 8.00000E-01 5.50000E+00-1.35000E+00
 -1      1508 8.00000E-01 7.30000E+00-7.50000E-01
 -1      1509 5.00000E-01 5.80000E+00-1.50000E-01
 -1      1510 8.00000E-01 1.00000E+00-1.05000E+00
 -1      1511 2.00000E-01 4.60000E+00-1.50000E-01
 -1      1512 8.00000E-01 2.80000E+00-4.50000E-01
 -1      1513 5.00000E-01 1.30000E+00-4.50000E-01
 -1      1514 5.00000E-01 7.00000E+00-1.35000E+00
 -1      1515 2.00000E-01 5.50000E+00-7.50000E-01
 -1      1516 2.00000E-01 7.30000E+00-1.35000E+00
 -1      1517 2.00000E-01 1.00000E+00-4.50000E-01
 -1      1518 2.00000E-01 2.80000E+00-1.05000E+00
 -1      1519 8.00000E-01 4.90000E+00-1.05000E+00
 -1      1520 8.00000E-01 6.70000E+00-4.50000E-01
 -1      1521 5.00000E-01 3.40000E+00-1.05000E+00
 -1      1522 5.00000E-01 5.20000E+00-4.50000E-01
 -1      1523 5.00000E-01 7.00000E-01-7.50000E-01
 -1      1524 8.00000E-01 1.30000E+00-1.35000E+00
 -1      1525 2.00000E-01 4.90000E+00-4.50000E-01
 -1      1526 8.00000E-01 3.10000E+00-7.50000E-01
 -1      1527 2.00000E-01 6.70000E+00-1.05000E+00
 -1      1528 5.00000E-01 1.60000E+00-1.50000E-01
 -1      1529 5.00000E-01 7.30000E+00-1.05000E+00
 -1      1530 2.00000E-01 4.00000E-01-1.50000E-01
 -1      1531 8.00000E-01 4.00000E+00-1.50000E-01
 -1      1532 5.00000E-01 2.80000E+00-1.35000E+00
 -1      1533 5.00000E-01 4.60000E+00-7.50000E-01
 -1      1534 2.00000E-01 1.30000E+00-7.50000E-01
 -1      1535 2.00000E-01 3.10000E+00-1.35000E+00
 -1      1536 8.00000E-01 5.20000E+00-1.35000E+00
 -1      1537 8.00000E-01 7.00000E+00-7.50000E-01
 -1      1538 5.00000E-01 5.50000E+00-1.50000E-01
 -1      1539 8.00000E-01 7.00000E-01-1.05000E+00
 -1      1540 2.00000E-01 4.30000E+00-1.50000E-01
 -1      1541 8.00000E-01 2.50000E+00-4.50000E-01
 -1      1542 5.00000E-01 1.00000E+00-4.50000E-01
 -1      1543 5.00000E-01 6.70000E+00-1.35000E+00
 -1      1544 2.00000E-01 5.20000E+00-7.50000E-01
 -1      1545 2.00000E-01 7.00000E+00-1.35000E+00
 -1      1546 2.00000E-01 7.00000E-01-4.50000E-01
 -1      1547 2.00000E-01 2.50000E+00-1.05000E+00
 -1      1548 8.00000E-01 4.60000E+00-1.05000E+00
 -1      1549 8.00000E-01 6.40000E+00-4.50000E-01
 -1      1550 5.00000E-01 3.10000E+00-1.05000E+00
 -1      1551 5.00000E-01 4.90000E+00-4.50000E-01
 -1      1552 5.00000E-01 4.00000E-01-7.50000E-01
 -1      1553 8.00000E-01 1.00000E+00-1.35000E+00
 -1      1554 2.00000E-01 4.60000E+00-4.50000E-01
 -1      1555 8.00000E-01 2.80000E+00-7.50000E-01
 -1      1556 2.00000E-01 6.40000E+00-1.05000E+00
 -1      1557 5.00000E-01 1.30000E+00-1.50000E-01
 -1      1558 5.00000E-01 7.00000E+00-1.05000E+00
 -1      1559 8.00000E-01 3.70000E+00-1.50000E-01
 -1      1560 5.00000E-01 2.50000E+00-1.35000E+00
 -1      1561 5.00000E-01 4.30000E+00-7.50000E-01
 -1      1562 2.00000E-01 1.00000E+00-7.50000E-01
 -1      1563 2.00000E-01 2.80000E+00-1.35000E+00
 -1      1564 8.00000E-01 4.90000E+00-1.35000E+00
 -1      1565 8.00000E-01 6.70000E+00-7.50000E-01
 -1      1566 5.00000E-01 5.20000E+00-1.50000E-01
 -1      1567 8.00000E-01 4.00000E-01-1.05000E+00
 -1      1568 2.00000E-01 4.00000E+00-1.50000E-01
 -1      1569 8.00000E-01 2.20000E+00-4.50000E-01
 -1      1570 8.00000E-01 7.60000E+00-1.50000E-01
 -1      1571 5.00000E-01 7.00000E-01-4.50000E-01
 -1      1572 5.00000E-01 6.40000E+00-1.35000E+00
 -1      1573 2.00000E-01 4.90000E+00-7.50000E-01
 -1      1574 2.00000E-01 6.70000E+00-1.35000E+00
 -1      1575 2.00000E-01 4.00000E-01-4.50000E-01
 -1      1576 2.00000E-01 2.20000E+00-1.05000E+00
 -1      1577 8.00000E-01 4.30000E+00-1.05000E+00
 -1      1578 8.00000E-01 6.10000E+00-4.50000E-01
 -1      1579 5.00000E-01 2.80000E+00-1.05000E+00
 -1      1580 5.00000E-01 4.60000E+00-4.50000E-01
 -1      1581 8.00000E-01 7.00000E-01-1.35000E+00
 -1      1582 2.00000E-01 4.30000E+00-4.50000E-01
 -1      1583 8.00000E-01 2.50000E+00-7.50000E-01
 -1      1584 2.00000E-01 6.10000E+00-1.05000E+00
 -1      1585 5.00000E-01 1.00000E+00-1.50000E-01
 -1      1586 5.00000E-01 6.70000E+00-1.05000E+00
 -1      1587 8.00000E-01 3.40000E+00-1.50000E-01
 -1      1588 5.00000E-01 2.20000E+00-1.35000E+00
 -1      1589 5.00000E-01 4.00000E+00-7.50000E-01
 -1      1590 2.00000E-01 7.00000E-01-7.50000E-01
 -1      1591 2.00000E-01 2.50000E+00-1.35000E+00
 -1      1592 8.00000E-01 4.60000E+00-1.35000E+00
 -1      1593 8.00000E-01 6.40000E+00-7.50000E-01
 -1      1594 5.00000E-01 4.90000E+00-1.50000E-01
 -1      1595 2.00000E-01 3.70000E+00-1.50000E-01
 -1      1596 8.00000E-01 1.90000E+00-4.50000E-01
 -1      1597 8.00000E-01 7.30000E+00-1.50000E-01
 -1      1598 5.00000E-01 4.00000E-01-4.50000E-01
 -1      1599 5.00000E-01 6.10000E+00-1.35000E+00
 -1      1600 2.00000E-01 4.60000E+00-7.50000E-01
 -1      1601 2.00000E-01 6.40000E+00-1.35000E+00
 -1      1602 2.00000E-01 1.90000E+00-1.05000E+00
 -1      1603 8.00000E-01 4.00000E+00-1.05000E+00
 -1      1604 2.00000E-01 7.60000E+00-1.50000E-01
 -1      1605 8.00000E-01 5.80000E+00-4.50000E-01
 -1      1606 5.00000E-01 2.50000E+00-1.05000E+00
 -1      1607 5.00000E-01 4.30000E+00-4.50000E-01
 -1      1608 8.00000E-01 4.00000E-01-1.35000E+00
 -1      1609 2.00000E-01 4.00000E+00-4.50000E-01
 -1      1610 8.00000E-01 2.20000E+00-7.50000E-01
 -1      1611 2.00000E-01 5.80000E+00-1.05000E+00
 -1      1612 5.00000E-01 7.00000E-01-1.50000E-01
 -1      1613 5.00000E-01 6.40000E+00-1.05000E+00
 -1      1614 8.00000E-01 3.10000E+00-1.50000E-01
 -1      1615 5.00000E-01 1.90000E+00-1.35000E+00
 -1      1616 5.00000E-01 3.70000E+00-7.50000E-01
 -1      1617 2.00000E-01 4.00000E-01-7.50000E-01
 -1      1618 2.00000E-01 2.20000E+00-1.35000E+00
 -1      1619 8.00000E-01 4.30000E+00-1.35000E+00
 -1      1620 8.00000E-01 6.10000E+00-7.50000E-01
 -1      1621 5.00000E-01 4.60000E+00-1.50000E-01
 -1      1622 2.00000E-01 3.40000E+00-1.50000E-01
 -1      1623 8.00000E-01 1.60000E+00-4.50000E-01
 -1      1624 8.00000E-01 7.00000E+00-1.50000E-01
 -1      1625 5.00000E-01 5.80000E+00-1.35000E+00
 -1      1626 5.00000E-01 7.60000E+00-7.50000E-01
 -1      1627 2.00000E-01 4.30000E+00-7.50000E-01
 -1      1628 2.00000E-01 6.10000E+00-1.35000E+00
 -1      1629 2.00000E-01 1.60000E+00-1.05000E+00
 -1      1630 8.00000E-01 3.70000E+00-1.05000E+00
 -1      1631 2.00000E-01 7.30000E+00-1.50000E-01
 -1      1632 8.00000E-01 5.50000E+00-4.50000E-01
 -1      1633 5.00000E-01 2.20000E+00-1.05000E+00
 -1      1634 5.00000E-01 4.00000E+00-4.50000E-01
 -1      1635 2.00000E-01 3.70000E+00-4.50000E-01
 -1      1636 8.00000E-01 1.90000E+00-7.50000E-01
 -1      1637 8.00000E-01 7.60000E+00-1.05000E+00
 -1      1638 2.00000E-01 5.50000E+00-1.05000E+00
 -1      1639 5.00000E-01 4.00000E-01-1.50000E-01
 -1      1640 5.00000E-01 6.10000E+00-1.05000E+00
 -1      1641 8.00000E-01 2.80000E+00-1.50000E-01
 -1      1642 5.00000E-01 1.60000E+00-1.35000E+00
 -1      1643 5.00000E-01 3.40000E+00-7.50000E-01
 -1      1644 2.00000E-01 1.90000E+00-1.35000E+00
 -1      1645 8.00000E-01 4.00000E+00-1.35000E+00
 -1      1646 2.00000E-01 7.60000E+00-4.50000E-01
 -1      1647 8.00000E-01 5.80000E+00-7.50000E-01
 -1      1648 5.00000E-01 4.30000E+00-1.50000E-01
 -1      1649 2.00000E-01 3.10000E+00-1.50000E-01
 -1      1650 8.00000E-01 1.30000E+00-4.50000E-01
 -1      1651 8.00000E-01 6.70000E+00-1.50000E-01
 -1      1652 5.00000E-01 5.50000E+00-1.35000E+00
 -1      1653 5.00000E-01 7.30000E+00-7.50000E-01
 -1      1654 2.00000E-01 4.00000E+00-7.50000E-01
 -1      1655 2.00000E-01 5.80000E+00-1.35000E+00
 -1      1656 2.00000E-01 1.30000E+00-1.05000E+00
 -1      1657 8.00000E-01 3.40000E+00-1.05000E+00
 -1      1658 2.00000E-01 7.00000E+00-1.50000E-01
 -1      1659 8.00000E-01 5.20000E+00-4.50000E-01
 -1      1660 5.00000E-01 1.90000E+00-1.05000E+00
 -1      1661 5.00000E-01 3.70000E+00-4.50000E-01
 -1      1662 2.00000E-01 3.40000E+00-4.50000E-01
 -1      1663 8.00000E-01 1.60000E+00-7.50000E-01
 -1      1664 2.00000E-01 5.20000E+00-1.05000E+00
 -1      1665 8.00000E-01 7.30000E+00-1.05000E+00
 -1      1666 5.00000E-01 5.80000E+00-1.05000E+00
 -1      1667 5.00000E-01 7.60000E+00-4.50000E-01
 -1      1668 8.00000E-01 2.50000E+00-1.50000E-01
 -1      1669 5.00000E-01 1.30000E+00-1.35000E+00
 -1      1670 5.00000E-01 3.10000E+00-7.50000E-01
 -1      1671 2.00000E-01 1.60000E+00-1.35000E+00
 -1      1672 8.00000E-01 3.70000E+00-1.35000E+00
 -1      1673 2.00000E-01 7.30000E+00-4.50000E-01
 -1      1674 8.00000E-01 5.50000E+00-7.50000E-01
 -1      1675 5.00000E-01 4.00000E+00-1.50000E-01
 -1      1676 2.00000E-01 2.80000E+00-1.50000E-01
 -1      1677 8.00000E-01 1.00000E+00-4.50000E-01
 -1      1678 8.00000E-01 6.40000E+00-1.50000E-01
 -1      1679 5.00000E-01 5.20000E+00-1.35000E+00
 -1      1680 5.00000E-01 7.00000E+00-7.50000E-01
 -1      1681 2.00000E-01 3.70000E+00-7.50000E-01
 -1      1682 8.00000E-01 7.60000E+00-1.35000E+00
 -1      1683 2.00000E-01 5.50000E+00-1.35000E+00
 -1      1684 2.00000E-01 1.00000E+00-1.05000E+00
 -1      1685 8.00000E-01 3.10000E+00-1.05000E+00
 -1      1686 2.00000E-01 6.70000E+00-1.50000E-01
 -1      1687 8.00000E-01 4.90000E+00-4.50000E-01
 -1      1688 5.00000E-01 1.60000E+00-1.05000E+00
 -1      1689 5.00000E-01 3.40000E+00-4.50000E-01
 -1      1690 2.00000E-01 7.60000E+00-7.50000E-01
 -1      1691 2.00000E-01 3.10000E+00-4.50000E-01
 -1      1692 8.00000E-01 1.30000E+00-7.50000E-01
 -1      1693 2.00000E-01 4.90000E+00-1.05000E+00
 -1      1694 8.00000E-01 7.00000E+00-1.05000E+00
 -1      1695 5.00000E-01 5.50000E+00-1.05000E+00
 -1      1696 5.00000E-01 7.30000E+00-4.50000E-01
 -1      1697 8.00000E-01 2.20000E+00-1.50000E-01
 -1      1698 5.00000E-01 1.00000E+00-1.35000E+00
 -1      1699 5.00000E-01 2.80000E+00-7.50000E-01
 -1      1700 2.00000E-01 1.30000E+00-1.35000E+00
 -1      1701 8.00000E-01 3.40000E+00-1.35000E+00
 -1      1702 2.00000E-01 7.00000E+00-4.50000E-01
 -1      1703 8.00000E-01 5.20000E+00-7.50000E-01
 -1      1704 5.00000E-01 3.70000E+00-1.50000E-01
 -1      1705 2.00000E-01 2.50000E+00-1.50000E-01
 -1      1706 8.00000E-01 7.00000E-01-4.50000E-01
 -1      1707 8.00000E-01 6.10000E+00-1.50000E-01
 -1      1708 5.00000E-01 4.90000E+00-1.35000E+00
 -1      1709 5.00000E-01 6.70000E+00-7.50000E-01
 -1      1710 2.00000E-01 3.40000E+00-7.50000E-01
 -1      1711 8.00000E-01 7.30000E+00-1.35000E+00
 -1      1712 2.00000E-01 5.20000E+00-1.35000E+00
 -1      1713 5.00000E-01 7.60000E+00-1.50000E-01
 -1      1714 2.00000E-01 7.00000E-01-1.05000E+00
 -1      1715 8.00000E-01 2.80000E+00-1.05000E+00
 -1      1716 2.00000E-01 6.40000E+00-1.50000E-01
 -1      1717 8.00000E-01 4.60000E+00-4.50000E-01
 -1      1718 5.00000E-01 1.30000E+00-1.05000E+00
 -1      1719 5.00000E-01 3.10000E+00-4.50000E-01
 -1      1720 2.00000E-01 7.30000E+00-7.50000E-01
 -1      1721 2.00000E-01 2.80000E+00-4.50000E-01
 -1      1722 8.00000E-01 1.00000E+00-7.50000E-01
 -1      1723 2.00000E-01 4.60000E+00-1.05000E+00
 -1      1724 8.00000E-01 6.70000E+00-1.05000E+00
 -1      1725 6.50000E-01 7.75000E+00-3.00000E-01
 -1      1726 6.50000E-01 7.75000E+00-6.00000E-01
 -1      1727 6.50000E-01 7.45000E+00-3.00000E-01
 -1      1728 6.50000E-01 7.15000E+00-3.00000E-01
 -1      1729 6.50000E-01 7.45000E+00-6.00000E-01
 -1      1730 6.50000E-01 7.15000E+00-6.00000E-01
 -1      1731 6.50000E-01 6.85000E+00-3.00000E-01
 -1      1732 6.50000E-01 6.55000E+00-3.00000E-01
 -1      1733 6.50000E-01 6.85000E+00-6.00000E-01
 -1      1734 6.50000E-01 6.55000E+00-6.00000E-01
 -1      1735 6.50000E-01 6.25000E+00-3.00000E-01
 -1      1736 6.50000E-01 5.95000E+00-3.00000E-01
 -1      1737 6.50000E-01 6.25000E+00-6.00000E-01
 -1      1738 6.50000E-01 5.95000E+00-6.00000E-01
 -1      1739 6.50000E-01 5.65000E+00-3.00000E-01
 -1      1740 6.50000E-01 5.35000E+00-3.00000E-01
 -1      1741 6.50000E-01 5.65000E+00-6.00000E-01
 -1      1742 6.50000E-01 5.35000E+00-6.00000E-01
 -1      1743 6.50000E-01 5.05000E+00-3.00000E-01
 -1      1744 6.50000E-01 4.75000E+00-3.00000E-01
 -1      1745 6.50000E-01 5.05000E+00-6.00000E-01
 -1      1746 6.50000E-01 4.75000E+00-6.00000E-01
 -1      1747 6.50000E-01 4.45000E+00-3.00000E-01
 -1      1748 6.50000E-01 4.15000E+00-3.00000E-01
 -1      1749 6.50000E-01 4.45000E+00-6.00000E-01
 -1      1750 6.50000E-01 4.15000E+00-6.00000E-01
 -1      1751 3.50000E-01 7.75000E+00-3.00000E-01
 -1      1752 3.50000E-01 7.75000E+00-6.00000E-01
 -1      1753 3.50000E-01 7.45000E+00-3.00000E-01
 -1      1754 3.50000E-01 7.15000E+00-3.00000E-01
 -1      1755 3.50000E-01 7.45000E+00-6.00000E-01
 -1      1756 3.50000E-01 7.15000E+00-6.00000E-01
 -1      1757 3.50000E-01 6.85000E+00-3.00000E-01
 -1      1758 3.50000E-01 6.55000E+00-3.00000E-01
 -1      1759 3.50000E-01 6.85000E+00-6.00000E-01
 -1      1760 3.50000E-01 6.55000E+00-6.00000E-01
 -1      1761 3.50000E-01 6.25000E+00-3.00000E-01
 -1      1762 3.50000E-01 5.95000E+00-3.00000E-01
 -1      1763 3.50000E-01 6.25000E+00-6.00000E-01
 -1      1764 3.50000E-01 5.95000E+00-6.00000E-01
 -1      1765 3.50000E-01 5.65000E+00-3.00000E-01
 -1      1766 3.50000E-01 5.35000E+00-3.00000E-01
 -1      1767 3.50000E-01 5.65000E+00-6.00000E-01
 -1      1768 3.50000E-01 5.35000E+00-6.00000E-01
 -1      1769 3.50000E-01 5.05000E+00-3.00000E-01
 -1      1770 3.50000E-01 4.75000E+00-3.00000E-01
 -1      1771 3.50000E-01 5.05000E+00-6.00000E-01
 -1      1772 3.50000E-01 4.75000E+00-6.00000E-01
 -1      1773 3.50000E-01 4.45000E+00-3.00000E-01
 -1      1774 3.50000E-01 4.15000E+00-3.00000E-01
 -1      1775 3.50000E-01 4.45000E+00-6.00000E-01
 -1      1776 3.50000E-01 4.15000E+00-6.00000E-01
 -1      1777 6.50000E-01 3.85000E+00-3.00000E-01
 -1      1778 6.50000E-01 3.55000E+00-3.00000E-01
 -1      1779 6.50000E-01 3.85000E+00-6.00000E-01
 -1      1780 6.50000E-01 3.55000E+00-6.00000E-01
 -1      1781 6.50000E-01 3.25000E+00-3.00000E-01
 -1      1782 6.50000E-01 2.95000E+00-3.00000E-01
 -1      1783 6.50000E-01 3.25000E+00-6.00000E-01
 -1      1784 6.50000E-01 2.95000E+00-6.00000E-01
 -1      1785 6.50000E-01 2.65000E+00-3.00000E-01
 -1      1786 6.50000E-01 2.35000E+00-3.00000E-01
 -1      1787 6.50000E-01 2.65000E+00-6.00000E-01
 -1      1788 6.50000E-01 2.35000E+00-6.00000E-01
 -1      1789 6.50000E-01 2.05000E+00-3.00000E-01
 -1      1790 6.50000E-01 1.75000E+00-3.00000E-01
 -1      1791 6.50000E-01 2.05000E+00-6.00000E-01
 -1      1792 6.50000E-01 1.75000E+00-6.00000E-01
 -1      1793 6.50000E-01 1.45000E+00-3.00000E-01
 -1      1794 6.50000E-01 1.15000E+00-3.00000E-01
 -1      1795 6.50000E-01 1.45000E+00-6.00000E-01
 -1      1796 6.50000E-01 1.15000E+00-6.00000E-01
 -1      1797 6.50000E-01 8.50000E-01-3.00000E-01
 -1      1798 6.50000E-01 5.50000E-01-3.00000E-01
 -1      1799 6.50000E-01 8.50000E-01-6.00000E-01
 -1      1800 6.50000E-01 5.50000E-01-6.00000E-01
 -1      1801 6.50000E-01 2.50000E-01-3.00000E-01
 -1      1802 6.50000E-01 2.50000E-01-6.00000E-01
 -1      1803 3.50000E-01 3.85000E+00-3.00000E-01
 -1      1804 3.50000E-01 3.55000E+00-3.00000E-01
 -1      1805 3.50000E-01 3.85000E+00-6.00000E-01
 -1      1806 3.50000E-01 3.55000E+00-6.00000E-01
 -1      1807 3.50000E-01 3.25000E+00-3.00000E-01
 -1      1808 3.50000E-01 2.95000E+00-3.00000E-01
 -1      1809 3.50000E-01 3.25000E+00-6.00000E-01
 -1      1810 3.50000E-01 2.95000E+00-6.00000E-01
 -1      1811 3.50000E-01 2.65000E+00-3.00000E-01
 -1      1812 3.50000E-01 2.35000E+00-3.00000E-01
 -1      1813 3.50000E-01 2.65000E+00-6.00000E-01
 -1      1814 3.50000E-01 2.35000E+00-6.00000E-01
 -1      1815 3.50000E-01 2.05000E+00-3.00000E-01
 -1      1816 3.50000E-01 1.75000E+00-3.00000E-01
 -1      1817 3.50000E-01 2.05000E+00-6.00000E-01
 -1      1818 3.50000E-01 1.75000E+00-6.00000E-01
 -1      1819 3.50000E-01 1.45000E+00-3.00000E-01
 -1      1820 3.50000E-01 1.15000E+00-3.00000E-01
 -1      1821 3.50000E-01 1.45000E+00-6.00000E-01
 -1      1822 3.50000E-01 1.15000E+00-6.00000E-01
 -1      1823 3.50000E-01 8.50000E-01-3.00000E-01
 -1      1824 3.50000E-01 5.50000E-01-3.00000E-01
 -1      1825 3.50000E-01 8.50000E-01-6.00000E-01
 -1      1826 3.50000E-01 5.50000E-01-6.00000E-01
 -1      1827 3.50000E-01 2.50000E-01-3.00000E-01
 -1      1828 3.50000E-01 2.50000E-01-6.00000E-01
 -1      1829 6.50000E-01 7.75000E+00-9.00000E-01
 -1      1830 6.50000E-01 7.75000E+00-1.20000E+00
 -1      1831 6.50000E-01 7.45000E+00-9.00000E-01
 -1      1832 6.50000E-01 7.15000E+00-9.00000E-01
 -1      1833 6.50000E-01 7.45000E+00-1.20000E+00
 -1      1834 6.50000E-01 7.15000E+00-1.20000E+00
 -1      1835 6.50000E-01 6.85000E+00-9.00000E-01
 -1      1836 6.50000E-01 6.55000E+00-9.00000E-01
 -1      1837 6.50000E-01 6.85000E+00-1.20000E+00
 -1      1838 6.50000E-01 6.55000E+00-1.20000E+00
 -1      1839 6.50000E-01 6.25000E+00-9.00000E-01
 -1      1840 6.50000E-01 5.95000E+00-9.00000E-01
 -1      1841 6.50000E-01 6.25000E+00-1.20000E+00
 -1      1842 6.50000E-01 5.95000E+00-1.20000E+00
 -1      1843 6.50000E-01 5.65000E+00-9.00000E-01
 -1      1844 6.50000E-01 5.35000E+00-9.00000E-01
 -1      1845 6.50000E-01 5.65000E+00-1.20000E+00
 -1      1846 6.50000E-01 5.35000E+00-1.20000E+00
 -1      1847 6.50000E-01 5.05000E+00-9.00000E-01
 -1      1848 6.50000E-01 4.75000E+00-9.00000E-01
 -1      1849 6.50000E-01 5.05000E+00-1.20000E+00
 -1      1850 6.50000E-01 4.75000E+00-1.20000E+00
 -1      1851 6.50000E-01 4.45000E+00-9.00000E-01
 -1      1852 6.50000E-01 4.15000E+00-9.00000E-01
 -1      1853 6.50000E-01 4.45000E+00-1.20000E+00
 -1      1854 6.50000E-01 4.15000E+00-1.20000E+00
 -1      1855 3.50000E-01 7.75000E+00-9.00000E-01
 -1      1856 3.50000E-01 7.75000E+00-1.20000E+00
 -1      1857 3.50000E-01 7.45000E+00-9.00000E-01
 -1      1858 3.50000E-01 7.15000E+00-9.00000E-01
 -1      1859 3.50000E-01 7.45000E+00-1.20000E+00
 -1      1860 3.50000E-01 7.15000E+00-1.20000E+00
 -1      1861 3.50000E-01 6.85000E+00-9.00000E-01
 -1      1862 3.50000E-01 6.55000E+00-9.00000E-01
 -1      1863 3.50000E-01 6.85000E+00-1.20000E+00
 -1      1864 3.50000E-01 6.55000E+00-1.20000E+00
 -1      1865 3.50000E-01 6.25000E+00-9.00000E-01
 -1      1866 3.50000E-01 5.95000E+00-9.00000E-01
 -1      1867 3.50000E-01 6.25000E+00-1.20000E+00
 -1      1868 3.50000E-01 5.95000E+00-1.20000E+00
 -1      1869 3.50000E-01 5.65000E+00-9.00000E-01
 -1      1870 3.50000E-01 5.35000E+00-9.00000E-01
 -1      1871 3.50000E-01 5.65000E+00-1.20000E+00
 -1      1872 3.50000E-01 5.35000E+00-1.20000E+00
 -1      1873 3.50000E-01 5.05000E+00-9.00000E-01
 -1      1874 3.50000E-01 4.75000E+00-9.00000E-01
 -1      1875 3.50000E-01 5.05000E+00-1.20000E+00
 -1      1876 3.50000E-01 4.75000E+00-1.20000E+00
 -1      1877 3.50000E-01 4.45000E+00-9.00000E-01
 -1      1878 3.50000E-01 4.15000E+00-9.00000E-01
 -1      1879 3.50000E-01 4.45000E+00-1.20000E+00
 -1      1880 3.50000E-01 4.15000E+00-1.20000E+00
 -1      1881 6.50000E-01 3.85000E+00-9.00000E-01
 -1      1882 6.50000E-01 3.55000E+00-9.00000E-01
 -1      1883 6.50000E-01 3.85000E+00-1.20000E+00
 -1      1884 6.50000E-01 3.55000E+00-1.20000E+00
 -1      1885 6.50000E-01 3.25000E+00-9.00000E-01
 -1      1886 6.50000E-01 2.95000E+00-9.00000E-01
 -1      1887 6.50000E-01 3.25000E+00-1.20000E+00
 -1      1888 6.50000E-01 2.95000E+00-1.20000E+00
 -1      1889 6.50000E-01 2.65000E+00-9.00000E-01
 -1      1890 6.50000E-01 2.35000E+00-9.00000E-01
 -1      1891 6.50000E-01 2.65000E+00-1.20000E+00
 -1      1892 6.50000E-01 2.35000E+00-1.20000E+00
 -1      1893 6.50000E-01 2.05000E+00-9.00000E-01
 -1      1894 6.50000E-01 1.75000E+00-9.00000E-01
 -1      1895 6.50000E-01 2.05000E+00-1.20000E+00
 -1      1896 6.50000E-01 1.75000E+00-1.20000E+00
 -1      1897 6.50000E-01 1.45000E+00-9.00000E-01
 -1      1898 6.50000E-01 1.15000E+00-9.00000E-01
 -1      1899 6.50000E-01 1.45000E+00-1.20000E+00
 -1      1900 6.50000E-01 1.15000E+00-1.20000E+00
 -1      1901 6.50000E-01 8.50000E-01-9.00000E-01
 -1      1902 6.50000E-01 5.50000E-01-9.00000E-01
 -1      1903 6.50000E-01 8.50000E-01-1.20000E+00
 -1      1904 6.50000E-01 5.50000E-01-1.20000E+00
 -1      1905 6.50000E-01 2.50000E-01-9.00000E-01
 -1      1906 6.50000E-01 2.50000E-01-1.20000E+00
 -1      1907 3.50000E-01 3.85000E+00-9.00000E-01
 -1      1908 3.50000E-01 3.55000E+00-9.00000E-01
 -1      1909 3.50000E-01 3.85000E+00-1.20000E+00
 -1      1910 3.50000E-01 3.55000E+00-1.20000E+00
 -1      1911 3.50000E-01 3.25000E+00-9.00000E-01
 -1      1912 3.50000E-01 2.95000E+00-9.00000E-01
 -1      1913 3.50000E-01 3.25000E+00-1.20000E+00
 -1      1914 3.50000E-01 2.95000E+00-1.20000E+00
 -1      1915 3.50000E-01 2.65000E+00-9.00000E-01
 -1      1916 3.50000E-01 2.35000E+00-9.00000E-01
 -1      1917 3.50000E-01 2.65000E+00-1.20000E+00
 -1      1918 3.50000E-01 2.35000E+00-1.20000E+00
 -1      1919 3.50000E-01 2.05000E+00-9.00000E-01
 -1      1920 3.50000E-01 1.75000E+00-9.00000E-01
 -1      1921 3.50000E-01 2.05000E+00-1.20000E+00
 -1      1922 3.50000E-01 1.75000E+00-1.20000E+00
 -1      1923 3.50000E-01 1.45000E+00-9.00000E-01
 -1      1924 3.50000E-01 1.15000E+00-9.00000E-01
 -1      1925 3.50000E-01 1.45000E+00-1.20000E+00
 -1      1926 3.50000E-01 1.15000E+00-1.20000E+00
 -1      1927 3.50000E-01 8.50000E-01-9.00000E-01
 -1      1928 3.50000E-01 5.50000E-01-9.00000E-01
 -1      1929 3.50000E-01 8.50000E-01-1.20000E+00
 -1      1930 3.50000E-01 5.50000E-01-1.20000E+00
 -1      1931 3.50000E-01 2.50000E-01-9.00000E-01
 -1      1932 3.50000E-01 2.50000E-01-1.20000E+00
 -1      1933 1.75000E-01 5.47727E-01-9.18750E-01
 -1      1934 1.75000E-01 3.26136E+00-3.37500E-01
 -1      1935 9.00000E-01 3.90909E+00-2.62500E-01
 -1      1936 1.00000E-01 3.00455E+00-6.56250E-01
 -1      1937 1.75000E-01 4.16591E+00-1.16250E+00
 -1      1938 9.00000E-01 2.10000E+00-8.43750E-01
 -1      1939 1.83333E-01 2.00000E-01-7.50000E-01
 -1      1940 1.75000E-01 2.35682E+00-2.43750E-01
 -1      1941 1.75000E-01 5.07045E+00-3.37500E-01
 -1      1942 8.33333E-02 4.09091E+00-1.40625E+00
 -1      1943 9.00000E-01 6.80455E+00-8.43750E-01
 -1      1944 1.75000E-01 5.64318E+00-5.81250E-01
 -1      1945 1.75000E-01 2.68864E+00-9.18750E-01
 -1      1946 2.50000E-01 9.09091E-02-1.40625E+00
 -1      1947 1.00000E-01 6.29091E+00-8.43750E-01
 -1      1948 1.00000E-01 1.19545E+00-6.56250E-01
 -1      1949 4.16667E-01 9.09091E-02-9.37500E-02
 -1      1950 1.75000E-01 2.02500E+00-5.81250E-01
 -1      1951 1.75000E-01 5.64318E+00-3.37500E-01
 -1      1952 1.75000E-01 5.97500E+00-3.37500E-01
 -1      1953 1.75000E-01 6.54773E+00-2.43750E-01
 -1      1954 8.16667E-01 7.80000E+00-5.06250E-01
 -1      1955 1.00000E-01 4.81364E+00-2.62500E-01
 -1      1956 2.50000E-01 7.90909E+00-9.37500E-02
 -1      1957 2.58333E-01 7.87500E+00-4.87500E-01
 -1      1958 1.75000E-01 7.78409E+00-2.43750E-01
 -1      1959 2.50000E-01 7.90909E+00-1.40625E+00
 -1      1960 8.25000E-01 7.78409E+00-8.25000E-01
 -1      1961 1.75000E-01 7.78409E+00-1.25625E+00
 -1      1962 8.33333E-02 7.90909E+00-9.37500E-02
 -1      1963 9.00000E-01 3.00455E+00-8.43750E-01
 -1      1964 8.25000E-01 6.54773E+00-2.43750E-01
 -1      1965 2.58333E-01 7.87500E+00-6.75000E-01
 -1      1966 1.83333E-01 7.80000E+00-1.08750E+00
 -1      1967 8.33333E-02 7.90909E+00-6.56250E-01
 -1      1968 1.75000E-01 3.83409E+00-1.25625E+00
 -1      1969 5.75000E-01 7.78409E+00-1.50000E-01
 -1      1970 5.75000E-01 7.87500E+00-4.87500E-01
 -1      1971 8.25000E-01 7.78409E+00-2.43750E-01
 -1      1972 8.25000E-01 7.45227E+00-5.81250E-01
 -1      1973 8.25000E-01 2.35682E+00-1.16250E+00
 -1      1974 8.16667E-01 7.80000E+00-9.93750E-01
 -1      1975 8.25000E-01 3.26136E+00-1.25625E+00
 -1      1976 9.00000E-01 2.10000E+00-6.56250E-01
 -1      1977 1.75000E-01 6.87955E+00-5.81250E-01
 -1      1978 1.75000E-01 7.45227E+00-2.43750E-01
 -1      1979 2.50000E-01 9.09091E-02-9.37500E-02
 -1      1980 7.50000E-01 9.09091E-02-9.37500E-02
 -1      1981 9.16667E-01 9.09091E-02-9.37500E-02
 -1      1982 8.25000E-01 1.78409E+00-9.18750E-01
 -1      1983 8.25000E-01 1.45227E+00-5.81250E-01
 -1      1984 9.16667E-01 9.09091E-02-1.21875E+00
 -1      1985 7.41667E-01 1.25000E-01-4.87500E-01
 -1      1986 4.25000E-01 1.25000E-01-1.01250E+00
 -1      1987 1.75000E-01 4.73864E+00-1.16250E+00
 -1      1988 9.16667E-01 9.09091E-02-8.43750E-01
 -1      1989 8.25000E-01 2.15909E-01-9.18750E-01
 -1      1990 9.16667E-01 9.09091E-02-1.03125E+00
 -1      1991 9.16667E-01 3.90909E+00-9.37500E-02
 -1      1992 8.25000E-01 1.21136E+00-9.18750E-01
 -1      1993 1.75000E-01 5.07045E+00-1.16250E+00
 -1      1994 8.33333E-02 9.09091E-02-1.40625E+00
 -1      1995 5.83333E-01 9.09091E-02-9.37500E-02
 -1      1996 1.75000E-01 5.64318E+00-9.18750E-01
 -1      1997 8.33333E-02 9.09091E-02-6.56250E-01
 -1      1998 4.16667E-01 9.09091E-02-1.40625E+00
 -1      1999 1.75000E-01 5.64318E+00-1.16250E+00
 -1      2000 8.25000E-01 5.64318E+00-9.18750E-01
 -1      2001 7.50000E-01 9.09091E-02-1.40625E+00
 -1      2002 1.75000E-01 5.97500E+00-1.16250E+00
 -1      2003 5.00000E-01 2.00000E-01-4.12500E-01
 -1      2004 5.00000E-01 2.00000E-01-7.50000E-01
 -1      2005 8.25000E-01 5.47727E-01-1.16250E+00
 -1      2006 8.25000E-01 1.45227E+00-1.25625E+00
 -1      2007 6.58333E-01 1.21136E+00-1.50000E-01
 -1      2008 1.75000E-01 1.45227E+00-1.25625E+00
 -1      2009 8.25000E-01 5.47727E-01-5.81250E-01
 -1      2010 8.25000E-01 5.47727E-01-2.43750E-01
 -1      2011 5.00000E-01 7.80000E+00-1.08750E+00
 -1      2012 1.75000E-01 6.54773E+00-1.16250E+00
 -1      2013 1.83333E-01 2.00000E-01-1.08750E+00
 -1      2014 1.75000E-01 7.45227E+00-1.25625E+00
 -1      2015 1.00000E-01 7.70909E+00-6.56250E-01
 -1      2016 5.83333E-01 9.09091E-02-1.40625E+00
 -1      2017 5.00000E-01 7.80000E+00-7.50000E-01
 -1      2018 8.25000E-01 2.15909E-01-6.75000E-01
 -1      2019 1.75000E-01 7.45227E+00-9.18750E-01
 -1      2020 1.75000E-01 7.78409E+00-8.25000E-01
 -1      2021 1.75000E-01 5.47727E-01-1.25625E+00
 -1      2022 3.41667E-01 1.21136E+00-1.35000E+00
 -1      2023 4.25000E-01 7.78409E+00-1.35000E+00
 -1      2024 1.75000E-01 1.45227E+00-9.18750E-01
 -1      2025 5.83333E-01 7.90909E+00-1.40625E+00
 -1      2026 9.16667E-01 7.90909E+00-1.40625E+00
 -1      2027 8.25000E-01 6.54773E+00-1.25625E+00
 -1      2028 1.75000E-01 2.35682E+00-1.25625E+00
 -1      2029 8.25000E-01 7.45227E+00-1.16250E+00
 -1      2030 8.25000E-01 7.78409E+00-1.25625E+00
 -1      2031 1.00000E-01 3.18636E+00-1.23750E+00
 -1      2032 7.50000E-01 7.90909E+00-1.40625E+00
 -1      2033 1.75000E-01 3.83409E+00-3.37500E-01
 -1      2034 8.25000E-01 5.64318E+00-1.25625E+00
 -1      2035 1.75000E-01 3.26136E+00-9.18750E-01
 -1      2036 8.25000E-01 3.83409E+00-1.16250E+00
 -1      2037 1.75000E-01 2.02500E+00-1.16250E+00
 -1      2038 8.25000E-01 5.97500E+00-1.16250E+00
 -1      2039 8.25000E-01 5.07045E+00-1.16250E+00
 -1      2040 1.75000E-01 2.02500E+00-9.18750E-01
 -1      2041 9.00000E-01 4.81364E+00-1.23750E+00
 -1      2042 8.25000E-01 4.16591E+00-1.16250E+00
 -1      2043 1.75000E-01 3.59318E+00-9.18750E-01
 -1      2044 9.16667E-01 7.90909E+00-2.81250E-01
 -1      2045 1.75000E-01 2.92955E+00-1.16250E+00
 -1      2046 1.75000E-01 4.16591E+00-3.37500E-01
 -1      2047 1.75000E-01 2.15909E-01-1.25625E+00
 -1      2048 9.16667E-01 7.90909E+00-9.37500E-02
 -1      2049 8.33333E-02 9.09091E-02-1.21875E+00
 -1      2050 1.75000E-01 1.78409E+00-5.81250E-01
 -1      2051 8.33333E-02 9.09091E-02-4.68750E-01
 -1      2052 4.16667E-01 7.90909E+00-9.37500E-02
 -1      2053 8.25000E-01 7.45227E+00-3.37500E-01
 -1      2054 8.33333E-02 9.09091E-02-8.43750E-01
 -1      2055 7.50000E-01 7.90909E+00-9.37500E-02
 -1      2056 8.25000E-01 5.97500E+00-3.37500E-01
 -1      2057 2.58333E-01 1.25000E-01-4.87500E-01
 -1      2058 8.25000E-01 2.15909E-01-2.43750E-01
 -1      2059 8.25000E-01 5.64318E+00-3.37500E-01
 -1      2060 1.75000E-01 1.45227E+00-3.37500E-01
 -1      2061 8.25000E-01 5.64318E+00-5.81250E-01
 -1      2062 8.25000E-01 5.07045E+00-3.37500E-01
 -1      2063 1.75000E-01 5.47727E-01-2.43750E-01
 -1      2064 1.75000E-01 2.15909E-01-2.43750E-01
 -1      2065 8.25000E-01 4.16591E+00-3.37500E-01
 -1      2066 8.33333E-02 9.09091E-02-9.37500E-02
 -1      2067 8.25000E-01 4.73864E+00-3.37500E-01
 -1      2068 9.16667E-01 4.09091E+00-9.37500E-02
 -1      2069 8.25000E-01 2.68864E+00-5.81250E-01
 -1      2070 8.25000E-01 2.92955E+00-3.37500E-01
 -1      2071 8.25000E-01 2.35682E+00-2.43750E-01
 -1      2072 8.25000E-01 3.26136E+00-5.81250E-01
 -1      2073 8.25000E-01 2.02500E+00-3.37500E-01
 -1      2074 8.25000E-01 3.59318E+00-5.81250E-01
 -1      2075 8.25000E-01 3.26136E+00-3.37500E-01
 -1      2076 8.25000E-01 1.45227E+00-2.43750E-01
 -1      2077 8.33333E-02 3.90909E+00-1.40625E+00
 -1      2078 7.45833E-01 1.07955E-01-1.02188E+00
 -1      2079 9.00000E-01 6.29091E+00-6.56250E-01
 -3
    3C                          8020                                     1
 -1      2657    3    0    1
 -2      1706      1798      1361      1033
 -1      2658    3    0    1
 -2        45      1014        46       252
 -1      2659    3    0    1
 -2       681       675       682      1525
 -1      2660    3    0    1
 -2      1374      1808      1416      1782
 -1      2661    3    0    1
 -2      1764      1393      1436      1738
 -1      2662    3    0    1
 -2       657       663       656      1378
 -1      2663    3    0    1
 -2      1393      1764      1457      1866
 -1      2664    3    0    1
 -2      1365      1911      1488      2035
 -1      2665    3    0    1
 -2      1922      1615      1660      1896
 -1      2666    3    0    1
 -2      1483      1821      1513      1819
 -1      2667    3    0    1
 -2      1590       516      1714      1933
 -1      2668    3    0    1
 -2       912      1645       913      1619
 -1      2669    3    0    1
 -2      1370      1114      1583      1107
 -1      2670    3    0    1
 -2       840      1642       845      1922
 -1      2671    3    0    1
 -2      1885      1550      1521      1887
 -1      2672    3    0    1
 -2      1369      1928      1714      1933
 -1      2673    3    0    1
 -2        51       283        52      1981
 -1      2674    3    0    1
 -2       565       564      1505      1475
 -1      2675    3    0    1
 -2      1528       324       325       320
 -1      2676    3    0    1
 -2      1918      1892      1560      1606
 -1      2677    3    0    1
 -2      1166      1160      1531      1935
 -1      2678    3    0    1
 -2      1918       860      1591      1560
 -1      2679    3    0    1
 -2      1476       894      1506       637
 -1      2680    3    0    1
 -2      1836      1724      1379      1838
 -1      2681    3    0    1
 -2       470       466      1424       465
 -1      2682    3    0    1
 -2      1566       419       420      1743
 -1      2683    3    0    1
 -2      1693       691       684      1573
 -1      2684    3    0    1
 -2       442       132       722       131
 -1      2685    3    0    1
 -2      1377      1706      1800      2009
 -1      2686    3    0    1
 -2       946      1652       941       942
 -1      2687    3    0    1
 -2      1489      1847      1205      1703
 -1      2688    3    0    1
 -2       769      1516       776      1469
 -1      2689    3    0    1
 -2       419       423      1418       424
 -1      2690    3    0    1
 -2      1558      1586      1863      1837
 -1      2691    3    0    1
 -2      1880      1406      1378      1937
 -1      2692    3    0    1
 -2       733       726       727      1584
 -1      2693    3    0    1
 -2      1462      1878      1589      1852
 -1      2694    3    0    1
 -2      1443      1416       355       354
 -1      2695    3    0    1
 -2      1503       875      1914       880
 -1      2696    3    0    1
 -2      1908      1491      1907      1616
 -1      2697    3    0    1
 -2       278      1827      1979       279
 -1      2698    3    0    1
 -2      1760      1381      1759      1357
 -1      2699    3    0    1
 -2      1538       436      1509      1765
 -1      2700    3    0    1
 -2       482       481      1631       486
 -1      2701    3    0    1
 -2      1271      1278      1520      1651
 -1      2702    3    0    1
 -2       753       752      1403       760
 -1      2703    3    0    1
 -2       343      1668       344       349
 -1      2704    3    0    1
 -2       212      1413      1105      1112
 -1      2705    3    0    1
 -2       411      1511       406       412
 -1      2706    3    0    1
 -2       382       376      1622       381
 -1      2707    3    0    1
 -2      1583      1555      1787      2069
 -1      2708    3    0    1
 -2       457      1716       736       134
 -1      2709    3    0    1
 -2      1637      1831      1665      1296
 -1      2710    3    0    1
 -2      1836      1364      1613      1839
 -1      2711    3    0    1
 -2      1665      1508      1289      1296
 -1      2712    3    0    1
 -2       979       974       975      1574
 -1      2713    3    0    1
 -2       736      1716       737       743
 -1      2714    3    0    1
 -2      1500      1829      1855      1626
 -1      2715    3    0    1
 -2      1322      1326      1321      1970
 -1      2716    3    0    1
 -2      1759      1403      1375      1861
 -1      2717    3    0    1
 -2       396       400       395      1648
 -1      2718    3    0    1
 -2      1991        73      1167      2068
 -1      2719    3    0    1
 -2      1496      1768      1771      1544
 -1      2720    3    0    1
 -2      1743      1769      1522      1551
 -1      2721    3    0    1
 -2      1093      1610      1398      1938
 -1      2722    3    0    1
 -2      1359       369       374       370
 -1      2723    3    0    1
 -2       723       716       724      1440
 -1      2724    3    0    1
 -2      1351      1702      1759      1757
 -1      2725    3    0    1
 -2      1655      1871      1868      1611
 -1      2726    3    0    1
 -2      1198      1199      1205      1358
 -1      2727    3    0    1
 -2      1419       911       912       907
 -1      2728    3    0    1
 -2       935      1875      1366       930
 -1      2729    3    0    1
 -2      1880      1879      1378      1435
 -1      2730    3    0    1
 -2      1804      1595      1803      1635
 -1      2731    3    0    1
 -2      1100      1610      1398      1093
 -1      2732    3    0    1
 -2       852      1466      1615       847
 -1      2733    3    0    1
 -2      1360       582      1705      1940
 -1      2734    3    0    1
 -2        64      1668       343        65
 -1      2735    3    0    1
 -2       553      1700       156       157
 -1      2736    3    0    1
 -2      1569      1786      1697      2071
 -1      2737    3    0    1
 -2       543      1534       537       544
 -1      2738    3    0    1
 -2      1081      1082      1596      1623
 -1      2739    3    0    1
 -2      1656      1534      1924      1923
 -1      2740    3    0    1
 -2      1901      1799      1523      1377
 -1      2741    3    0    1
 -2       282        40      1020      1981
 -1      2742    3    0    1
 -2       297      1530       291       292
 -1      2743    3    0    1
 -2      1507       948       953       228
 -1      2744    3    0    1
 -2      1459      1432       636       635
 -1      2745    3    0    1
 -2      1912      1579      1550      1886
 -1      2746    3    0    1
 -2      1892      1633      1588      1895
 -1      2747    3    0    1
 -2      1930      1412       810      1383
 -1      2748    3    0    1
 -2      1092      1398      1099      1973
 -1      2749    3    0    1
 -2      1037      1539      1044      1036
 -1      2750    3    0    1
 -2      1401      1539      1903      1901
 -1      2751    3    0    1
 -2       883       877      1356       882
 -1      2752    3    0    1
 -2      1879      1723      1877      1408
 -1      2753    3    0    1
 -2       528      1546      1590      1825
 -1      2754    3    0    1
 -2       837      1642       841       836
 -1      2755    3    0    1
 -2      1925      1671      1700      2008
 -1      2756    3    0    1
 -2      1700       835      1925      1669
 -1      2757    3    0    1
 -2       414       418      1445       419
 -1      2758    3    0    1
 -2      1025      1405      1032      1031
 -1      2759    3    0    1
 -2       263      1931      2054      1939
 -1      2760    3    0    1
 -2       666       125      1511       673
 -1      2761    3    0    1
 -2      1584      1867      1556      1865
 -1      2762    3    0    1
 -2      1215      1418      1659      1208
 -1      2763    3    0    1
 -2      1925      1642      1671      1922
 -1      2764    3    0    1
 -2      1588      1921      1615      1895
 -1      2765    3    0    1
 -2       306      1471       311      1585
 -1      2766    3    0    1
 -2      1435      1879      1877      1408
 -1      2767    3    0    1
 -2      1505       551       558      1629
 -1      2768    3    0    1
 -2      1664       698      1544      1870
 -1      2769    3    0    1
 -2       935      1712      1875      1679
 -1      2770    3    0    1
 -2       609       616       608      2045
 -1      2771    3    0    1
 -2      1374      1512      1785      1787
 -1      2772    3    0    1
 -2      1427      1400      1779      1777
 -1      2773    3    0    1
 -2      1476       629      1506      1910
 -1      2774    3    0    1
 -2       861       862      1892      1588
 -1      2775    3    0    1
 -2       641      1681       640       633
 -1      2776    3    0    1
 -2      1919      1602      1576      1921
 -1      2777    3    0    1
 -2      1879       915      1363      1392
 -1      2778    3    0    1
 -2       655       661      1627       662
 -1      2779    3    0    1
 -2       835      1669       831       836
 -1      2780    3    0    1
 -2       804       805      1412       799
 -1      2781    3    0    1
 -2       256      1906       257       252
 -1      2782    3    0    1
 -2      1602       573      1576      2037
 -1      2783    3    0    1
 -2      1355       155       154       539
 -1      2784    3    0    1
 -2       862      1560       861      1892
 -1      2785    3    0    1
 -2      1547      1917      1918      1591
 -1      2786    3    0    1
 -2      1781      1778      1359      1587
 -1      2787    3    0    1
 -2      1377      1037      1038      1030
 -1      2788    3    0    1
 -2      1552      1826      1617      1828
 -1      2789    3    0    1
 -2       813      1581       818       812
 -1      2790    3    0    1
 -2      1410       314       319      1557
 -1      2791    3    0    1
 -2      1802      1552      1598      1800
 -1      2792    3    0    1
 -2      1902      1428      1401      1904
 -1      2793    3    0    1
 -2      1365      1488      1912       607
 -1      2794    3    0    1
 -2      1465      1822      1494      1796
 -1      2795    3    0    1
 -2       811       810      1353       816
 -1      2796    3    0    1
 -2      1629      1656       552      2008
 -1      2797    3    0    1
 -2       273       278       498        34
 -1      2798    3    0    1
 -2       528      1562      1517      1825
 -1      2799    3    0    1
 -2      1923      1925      1629      1688
 -1      2800    3    0    1
 -2      1920      1894      1438      1688
 -1      2801    3    0    1
 -2      1923      1505      1821      1438
 -1      2802    3    0    1
 -2       575       583       582      1940
 -1      2803    3    0    1
 -2      1082      1088      1081      1596
 -1      2804    3    0    1
 -2      1671       840       845      1922
 -1      2805    3    0    1
 -2       525       531      1385       532
 -1      2806    3    0    1
 -2      1448      1814      1817      1384
 -1      2807    3    0    1
 -2       319       314       315      1557
 -1      2808    3    0    1
 -2      1809      1365      1911      1670
 -1      2809    3    0    1
 -2      1363       917       922      1853
 -1      2810    3    0    1
 -2       854      1618       849       855
 -1      2811    3    0    1
 -2      1918      1633      1892      1606
 -1      2812    3    0    1
 -2      1643      1911      1521      1885
 -1      2813    3    0    1
 -2      1473      1887      1503       886
 -1      2814    3    0    1
 -2      1130      1123      1526      1122
 -1      2815    3    0    1
 -2       631       638      1595       632
 -1      2816    3    0    1
 -2       600      1518       601       607
 -1      2817    3    0    1
 -2      1506       885      1535       884
 -1      2818    3    0    1
 -2      1110      1104      1111      1668
 -1      2819    3    0    1
 -2      1785      1541      1402      1787
 -1      2820    3    0    1
 -2      1775      1749      1607      1561
 -1      2821    3    0    1
 -2       651       171       658      1942
 -1      2822    3    0    1
 -2      1439      1413      1892      1973
 -1      2823    3    0    1
 -2       502      1369       503       509
 -1      2824    3    0    1
 -2      1888      1914      1503      1532
 -1      2825    3    0    1
 -2       857       851       852      1588
 -1      2826    3    0    1
 -2      1921      1602      1576      2037
 -1      2827    3    0    1
 -2      1149      1497      1468      1882
 -1      2828    3    0    1
 -2      1923      1656      1534      2024
 -1      2829    3    0    1
 -2      1644      1671       845      1922
 -1      2830    3    0    1
 -2      1810      1721      1691      1936
 -1      2831    3    0    1
 -2       594      1547       587      2028
 -1      2832    3    0    1
 -2      1915      1394      1518      1945
 -1      2833    3    0    1
 -2      1421      1916      1915      1354
 -1      2834    3    0    1
 -2       946      1652       950       945
 -1      2835    3    0    1
 -2      1473      1701       887       892
 -1      2836    3    0    1
 -2      1913      1521      1459      1911
 -1      2837    3    0    1
 -2       654       648       655      1654
 -1      2838    3    0    1
 -2      1746      1744      1687      1551
 -1      2839    3    0    1
 -2       322      1444       316       317
 -1      2840    3    0    1
 -2       617      1691       618      1934
 -1      2841    3    0    1
 -2      1582      1540       653      2046
 -1      2842    3    0    1
 -2       253       249      1932       254
 -1      2843    3    0    1
 -2       568      1390       561       569
 -1      2844    3    0    1
 -2       516      1617      1590       515
 -1      2845    3    0    1
 -2      1700      1671       553      2008
 -1      2846    3    0    1
 -2       825      1926      1669      2022
 -1      2847    3    0    1
 -2       809      1412      1385       518
 -1      2848    3    0    1
 -2      1927      1562      1494      1924
 -1      2849    3    0    1
 -2       253        28       503      2049
 -1      2850    3    0    1
 -2      1590      1714      1928      1933
 -1      2851    3    0    1
 -2      1824      1827      1598      1639
 -1      2852    3    0    1
 -2      1530       102       101       292
 -1      2853    3    0    1
 -2       504      1994      2047      2049
 -1      2854    3    0    1
 -2       327       321      1417       326
 -1      2855    3    0    1
 -2       536      1562      1534      1948
 -1      2856    3    0    1
 -2      1606      1633      1892      1890
 -1      2857    3    0    1
 -2      1530       513       512      2063
 -1      2858    3    0    1
 -2        34       100         4      2066
 -1      2859    3    0    1
 -2      1575      1827      1824      1530
 -1      2860    3    0    1
 -2       810      1353      1385      1930
 -1      2861    3    0    1
 -2       313       309       314      1410
 -1      2862    3    0    1
 -2       530      1714      1684      1927
 -1      2863    3    0    1
 -2       518       511      1412      2021
 -1      2864    3    0    1
 -2      1929      1930      1353      1401
 -1      2865    3    0    1
 -2      1671       559       553      2008
 -1      2866    3    0    1
 -2      1629      1925      1671      1922
 -1      2867    3    0    1
 -2       617      1691      1934      1649
 -1      2868    3    0    1
 -2       101       505      1530       292
 -1      2869    3    0    1
 -2        42        43       272      1017
 -1      2870    3    0    1
 -2       513       506       507      1575
 -1      2871    3    0    1
 -2       518      1412      1385      2021
 -1      2872    3    0    1
 -2      1546      1575       514      1826
 -1      2873    3    0    1
 -2       103      1501       297       102
 -1      2874    3    0    1
 -2       308        58      1062       313
 -1      2875    3    0    1
 -2      1069      1382       318        59
 -1      2876    3    0    1
 -2      1827       273       274       278
 -1      2877    3    0    1
 -2      1552      1523      1826      1800
 -1      2878    3    0    1
 -2      1801      1361      1598      1798
 -1      2879    3    0    1
 -2       301       300       296      1612
 -1      2880    3    0    1
 -2      1471       534       527       526
 -1      2881    3    0    1
 -2       308      1055        57      1437
 -1      2882    3    0    1
 -2       344       339      1470      1697
 -1      2883    3    0    1
 -2        29       502        30       253
 -1      2884    3    0    1
 -2        29       502       253       503
 -1      2885    3    0    1
 -2       403        75       398      1181
 -1      2886    3    0    1
 -2      1557       311      1820      1585
 -1      2887    3    0    1
 -2        34        47       278      2066
 -1      2888    3    0    1
 -2        47       286        48      1979
 -1      2889    3    0    1
 -2      1911      1521      1459      1908
 -1      2890    3    0    1
 -2      1819      1487      1820      1444
 -1      2891    3    0    1
 -2      1815      1429      1817      1404
 -1      2892    3    0    1
 -2       547       322      1417       107
 -1      2893    3    0    1
 -2      1681       634      1710       633
 -1      2894    3    0    1
 -2      1429      1812      1814      1404
 -1      2895    3    0    1
 -2        14       792       497       142
 -1      2896    3    0    1
 -2       659       407       666       124
 -1      2897    3    0    1
 -2        57        56       303      1437
 -1      2898    3    0    1
 -2       319      1410      1557      1793
 -1      2899    3    0    1
 -2      1813      1699      1374      1787
 -1      2900    3    0    1
 -2      1547      1915      1518      1945
 -1      2901    3    0    1
 -2      1404       571      1448      1950
 -1      2902    3    0    1
 -2      1614      1782      1482      2070
 -1      2903    3    0    1
 -2       284       289      1493      1801
 -1      2904    3    0    1
 -2      1153      1160      1559        71
 -1      2905    3    0    1
 -2      1811       355       351      1443
 -1      2906    3    0    1
 -2      1782      1482      1781      1614
 -1      2907    3    0    1
 -2      1541      1786      1569      2071
 -1      2908    3    0    1
 -2      1791      1596      1792      1636
 -1      2909    3    0    1
 -2      1705       589       596       590
 -1      2910    3    0    1
 -2      1811      1443      1812      1402
 -1      2911    3    0    1
 -2       596      1676       114       357
 -1      2912    3    0    1
 -2      1090      1082      1352      2073
 -1      2913    3    0    1
 -2      1499      1528       331      1816
 -1      2914    3    0    1
 -2       357       352      1705       351
 -1      2915    3    0    1
 -2       598       604       597      1721
 -1      2916    3    0    1
 -2      1557       309       310      1585
 -1      2917    3    0    1
 -2       535       536       543      1948
 -1      2918    3    0    1
 -2      1404       571       570       577
 -1      2919    3    0    1
 -2      1481       688      1941      1525
 -1      2920    3    0    1
 -2      1913      1914      1488      1535
 -1      2921    3    0    1
 -2      1144      1497      1454      2074
 -1      2922    3    0    1
 -2       650       656       649      1406
 -1      2923    3    0    1
 -2      1179      1372      1415      1172
 -1      2924    3    0    1
 -2      1776      1582      1774      1607
 -1      2925    3    0    1
 -2      1169      1175      1168      1619
 -1      2926    3    0    1
 -2      1577      1435      1854      1852
 -1      2927    3    0    1
 -2      1499       331       330       336
 -1      2928    3    0    1
 -2      1710      1643      1911      1908
 -1      2929    3    0    1
 -2       525       531       524      1385
 -1      2930    3    0    1
 -2      1596      1790      1352      1789
 -1      2931    3    0    1
 -2      1439      1085      1084      1092
 -1      2932    3    0    1
 -2      1813      1814      1402      1376
 -1      2933    3    0    1
 -2      1360       337      1390       336
 -1      2934    3    0    1
 -2       533       534      1471       526
 -1      2935    3    0    1
 -2      1382      1069       318      1410
 -1      2936    3    0    1
 -2       536      1534       543      1948
 -1      2937    3    0    1
 -2      1095      1094      1610      1102
 -1      2938    3    0    1
 -2      1491      1630      1882      1884
 -1      2939    3    0    1
 -2      1386      1715      1888      1891
 -1      2940    3    0    1
 -2       562      1417       561       554
 -1      2941    3    0    1
 -2      1644      1618       849       574
 -1      2942    3    0    1
 -2       541       534       535      1487
 -1      2943    3    0    1
 -2       119       638      1595       631
 -1      2944    3    0    1
 -2      1930       510       517      2021
 -1      2945    3    0    1
 -2      1367      1724      1694      1837
 -1      2946    3    0    1
 -2      1788      1402      1541      1787
 -1      2947    3    0    1
 -2      1432      1910      1459       636
 -1      2948    3    0    1
 -2      1676       361       356      1416
 -1      2949    3    0    1
 -2      1910      1506       890      1473
 -1      2950    3    0    1
 -2      1111      1110      1668      1117
 -1      2951    3    0    1
 -2       597      1721      1376       598
 -1      2952    3    0    1
 -2      1699      1579      1912      1886
 -1      2953    3    0    1
 -2       626      1662      1806       633
 -1      2954    3    0    1
 -2      1930       510      2021      1412
 -1      2955    3    0    1
 -2       516      1714       523      1590
 -1      2956    3    0    1
 -2      1930      1932      1412      1383
 -1      2957    3    0    1
 -2       828      1553      1049      1524
 -1      2958    3    0    1
 -2      1825      1523      1494      1799
 -1      2959    3    0    1
 -2      1505      1629       565      1920
 -1      2960    3    0    1
 -2      1374      1808      1810      1721
 -1      2961    3    0    1
 -2       356      1811      1676      1416
 -1      2962    3    0    1
 -2       644       636      1476      1968
 -1      2963    3    0    1
 -2      1873      1664      1870      1350
 -1      2964    3    0    1
 -2      1430       731       738       732
 -1      2965    3    0    1
 -2      1525      1554      1772      1770
 -1      2966    3    0    1
 -2      1336      1335      1330      1960
 -1      2967    3    0    1
 -2       654       655      1627      1654
 -1      2968    3    0    1
 -2      1568      1609      1803      2033
 -1      2969    3    0    1
 -2      1526      1670      1783      1885
 -1      2970    3    0    1
 -2       629       621      1459       628
 -1      2971    3    0    1
 -2      1494      1465      1796      1898
 -1      2972    3    0    1
 -2       877      1503       881       876
 -1      2973    3    0    1
 -2       537       530      1562       536
 -1      2974    3    0    1
 -2      1455      1429      1815      1789
 -1      2975    3    0    1
 -2       543       542      1534       549
 -1      2976    3    0    1
 -2      1684      1656       538       537
 -1      2977    3    0    1
 -2       337       332       110      1390
 -1      2978    3    0    1
 -2      1721      1808      1810      1691
 -1      2979    3    0    1
 -2       930       934       929      1366
 -1      2980    3    0    1
 -2      1492      1467      1767      1768
 -1      2981    3    0    1
 -2      1599      1867      1640      1841
 -1      2982    3    0    1
 -2      1578      1737      1735      1549
 -1      2983    3    0    1
 -2       141       492       487      1604
 -1      2984    3    0    1
 -2      1601       734      1556       741
 -1      2985    3    0    1
 -2      1711      1834      1484       997
 -1      2986    3    0    1
 -2      1481      1594      1769       416
 -1      2987    3    0    1
 -2       695       696       702      1467
 -1      2988    3    0    1
 -2      1525      1769      1770      1551
 -1      2989    3    0    1
 -2      1274      1280      1273      1367
 -1      2990    3    0    1
 -2      1584      1556       733      1865
 -1      2991    3    0    1
 -2      1803      1805      1609      1634
 -1      2992    3    0    1
 -2      1010      1961      1856      1959
 -1      2993    3    0    1
 -2       392       387       638      1568
 -1      2994    3    0    1
 -2       674      1511       673       666
 -1      2995    3    0    1
 -2       462      1716       457       134
 -1      2996    3    0    1
 -2      1716       743       462      1686
 -1      2997    3    0    1
 -2       698       691      1664      1544
 -1      2998    3    0    1
 -2       136       743       750      1686
 -1      2999    3    0    1
 -2      1742      1492      1740      1632
 -1      3000    3    0    1
 -2       709       717       716      1440
 -1      3001    3    0    1
 -2       127       128      1453       687
 -1      3002    3    0    1
 -2      1621      1472      1747      1744
 -1      3003    3    0    1
 -2       657       663      1378       664
 -1      3004    3    0    1
 -2      1609      1776      1774      1634
 -1      3005    3    0    1
 -2      1496      1525      1769      1941
 -1      3006    3    0    1
 -2       925      1876      1363       926
 -1      3007    3    0    1
 -2      1548      1184      1177      1183
 -1      3008    3    0    1
 -2      1554      1772       675      1525
 -1      3009    3    0    1
 -2      1956        96       496      2052
 -1      3010    3    0    1
 -2       758      1658      1702       765
 -1      3011    3    0    1
 -2      1515       710       703      1467
 -1      3012    3    0    1
 -2       750       137       136       467
 -1      3013    3    0    1
 -2      1766      1492      1467      1765
 -1      3014    3    0    1
 -2      1453       688      1496      1941
 -1      3015    3    0    1
 -2       434      1538       435      1739
 -1      3016    3    0    1
 -2      1387       737      1716      1953
 -1      3017    3    0    1
 -2       467       462       136      1686
 -1      3018    3    0    1
 -2       451       447      1371       446
 -1      3019    3    0    1
 -2      1738      1393      1737      1620
 -1      3020    3    0    1
 -2       710       703       711      1515
 -1      3021    3    0    1
 -2      1010      1347      2023      1011
 -1      3022    3    0    1
 -2      1609      1803      1774      1568
 -1      3023    3    0    1
 -2      1269      1565      1276      1268
 -1      3024    3    0    1
 -2       396       402      1540       397
 -1      3025    3    0    1
 -2      1399      1762      1371       446
 -1      3026    3    0    1
 -2       432       701       694       129
 -1      3027    3    0    1
 -2      1831      1829      1500      1626
 -1      3028    3    0    1
 -2       495      1317      1969      2052
 -1      3029    3    0    1
 -2      1655      1868      1628      2002
 -1      3030    3    0    1
 -2      1357      1387      1758      1953
 -1      3031    3    0    1
 -2       744       737      1387      1953
 -1      3032    3    0    1
 -2      1646      1753      1604      1978
 -1      3033    3    0    1
 -2      1758      1387      1760      1409
 -1      3034    3    0    1
 -2       378      1559       384       383
 -1      3035    3    0    1
 -2      1010      1347      1011       195
 -1      3036    3    0    1
 -2      1317      1751      1318      1323
 -1      3037    3    0    1
 -2        95      1319      1956      1962
 -1      3038    3    0    1
 -2       136       750       467      1686
 -1      3039    3    0    1
 -2      1694      1665      1282      1281
 -1      3040    3    0    1
 -2      1728      1461      1490      1730
 -1      3041    3    0    1
 -2      1342      1348      1856      1343
 -1      3042    3    0    1
 -2      1357      1758      1686      1953
 -1      3043    3    0    1
 -2      1351      1759      1381      1757
 -1      3044    3    0    1
 -2       444       450       449      1479
 -1      3045    3    0    1
 -2      1597       479       478       483
 -1      3046    3    0    1
 -2      1680      1558      1832      1835
 -1      3047    3    0    1
 -2       495        96      1317      2052
 -1      3048    3    0    1
 -2       970      1601      1867      1572
 -1      3049    3    0    1
 -2       144       796      1344       145
 -1      3050    3    0    1
 -2      1368      1397      1728       474
 -1      3051    3    0    1
 -2       786       793       785      1958
 -1      3052    3    0    1
 -2      1949       275       279      1827
 -1      3053    3    0    1
 -2      1760      1759      1709      1403
 -1      3054    3    0    1
 -2      1430       740       739       746
 -1      3055    3    0    1
 -2      1759      1760      1357      1403
 -1      3056    3    0    1
 -2      1713       485       486      1753
 -1      3057    3    0    1
 -2      1702      1351      1759      1756
 -1      3058    3    0    1
 -2       263      1931       264       258
 -1      3059    3    0    1
 -2      1688      1452      1897      1899
 -1      3060    3    0    1
 -2      1621       405       409       410
 -1      3061    3    0    1
 -2       706      1872       700      1683
 -1      3062    3    0    1
 -2       734       728       735      1628
 -1      3063    3    0    1
 -2      1866      1393      1840      1640
 -1      3064    3    0    1
 -2       432       431      1426       437
 -1      3065    3    0    1
 -2       957       961       956      1625
 -1      3066    3    0    1
 -2       925      1363      1395       920
 -1      3067    3    0    1
 -2       955      1868      1655      1625
 -1      3068    3    0    1
 -2      1761      1414      1436      1762
 -1      3069    3    0    1
 -2      1863      1586      1864      1543
 -1      3070    3    0    1
 -2      1764      1436      1414      1762
 -1      3071    3    0    1
 -2       731       725       732      1457
 -1      3072    3    0    1
 -2      1693       684       677      1573
 -1      3073    3    0    1
 -2       951      1652       946       947
 -1      3074    3    0    1
 -2       752       759      1357      1977
 -1      3075    3    0    1
 -2       949      1655      1683       950
 -1      3076    3    0    1
 -2       675       674       668      1554
 -1      3077    3    0    1
 -2      1675      1704      1803      1777
 -1      3078    3    0    1
 -2      1780      1497      1643      1882
 -1      3079    3    0    1
 -2      1853      1879      1363      1392
 -1      3080    3    0    1
 -2       719       711       712      1485
 -1      3081    3    0    1
 -2      1522      1566      1743      1740
 -1      3082    3    0    1
 -2       691       697       690      1544
 -1      3083    3    0    1
 -2      1496       689       696      1544
 -1      3084    3    0    1
 -2      1749      1775      1607      1580
 -1      3085    3    0    1
 -2       642       649      1654      1406
 -1      3086    3    0    1
 -2       397      1540      1568       652
 -1      3087    3    0    1
 -2      1879      1880      1378      1422
 -1      3088    3    0    1
 -2       706      1872      1683      1638
 -1      3089    3    0    1
 -2       685       691       684      1693
 -1      3090    3    0    1
 -2      1550      1913      1488      1911
 -1      3091    3    0    1
 -2      1942      1449       651      2077
 -1      3092    3    0    1
 -2      1874      1877      1723      1408
 -1      3093    3    0    1
 -2      1645       912       913       907
 -1      3094    3    0    1
 -2       650      1406      1449      1937
 -1      3095    3    0    1
 -2      1514      1863      1543      1837
 -1      3096    3    0    1
 -2       699       700      1872      1712
 -1      3097    3    0    1
 -2      1526      1128      1135      1129
 -1      3098    3    0    1
 -2      1366       693      1712       934
 -1      3099    3    0    1
 -2      1846      1695      1844      1460
 -1      3100    3    0    1
 -2      1872       700      1683      1712
 -1      3101    3    0    1
 -2       934      1712       935       939
 -1      3102    3    0    1
 -2      1289      1282      1665      1281
 -1      3103    3    0    1
 -2      1832      1529      1665      1834
 -1      3104    3    0    1
 -2       180       721      1655       181
 -1      3105    3    0    1
 -2      1865      1457      1584      1866
 -1      3106    3    0    1
 -2       691       692      1664      1693
 -1      3107    3    0    1
 -2       263      1931       258      2054
 -1      3108    3    0    1
 -2      1488       621       622       614
 -1      3109    3    0    1
 -2       190      1486       191       791
 -1      3110    3    0    1
 -2      1221      1674      1220      1214
 -1      3111    3    0    1
 -2      1832      1558      1529      1834
 -1      3112    3    0    1
 -2      1640      1842      1599      1841
 -1      3113    3    0    1
 -2      1593      1734      1364      1737
 -1      3114    3    0    1
 -2       966      1599       961       962
 -1      3115    3    0    1
 -2       718       725       724      1485
 -1      3116    3    0    1
 -2       712       711      1515      1485
 -1      3117    3    0    1
 -2       190       999      1486       784
 -1      3118    3    0    1
 -2       989       189       188       770
 -1      3119    3    0    1
 -2       248        28       253      2049
 -1      3120    3    0    1
 -2      2030      1345      1013      2032
 -1      3121    3    0    1
 -2      1477       962      1842      1450
 -1      3122    3    0    1
 -2      1442      1859      1856      1500
 -1      3123    3    0    1
 -2      1500      1829      1637      1830
 -1      3124    3    0    1
 -2      1604       140       785       778
 -1      3125    3    0    1
 -2       786       785      1604      1958
 -1      3126    3    0    1
 -2       795      1339       146      1334
 -1      3127    3    0    1
 -2      1000      1006      1005      1456
 -1      3128    3    0    1
 -2      1702      1686      1357      1757
 -1      3129    3    0    1
 -2      1665      1295      1289      1288
 -1      3130    3    0    1
 -2      1295      1665      1289      1296
 -1      3131    3    0    1
 -2      1478      1304      1303      1960
 -1      3132    3    0    1
 -2       795      1339      1334      2020
 -1      3133    3    0    1
 -2      1858      1375      1756      1720
 -1      3134    3    0    1
 -2       979       980       984      1574
 -1      3135    3    0    1
 -2      1752      1328      1323      1327
 -1      3136    3    0    1
 -2      1593      1734      1565      1836
 -1      3137    3    0    1
 -2      1690       788       787      2015
 -1      3138    3    0    1
 -2      1357      1759      1403      1977
 -1      3139    3    0    1
 -2      1673      1720       773       780
 -1      3140    3    0    1
 -2      1422      1395       664      1879
 -1      3141    3    0    1
 -2      1442       782       783      1469
 -1      3142    3    0    1
 -2       140      1631       771       778
 -1      3143    3    0    1
 -2       980      1543      1863      1574
 -1      3144    3    0    1
 -2       761       762       768      1498
 -1      3145    3    0    1
 -2      1752      1332      1726      2017
 -1      3146    3    0    1
 -2       490      1713       495       489
 -1      3147    3    0    1
 -2      1366       678       685       686
 -1      3148    3    0    1
 -2      1076        60      1382        59
 -1      3149    3    0    1
 -2        50       282       283        51
 -1      3150    3    0    1
 -2       798      1344      1349       143
 -1      3151    3    0    1
 -2      1319        95        14      1962
 -1      3152    3    0    1
 -2      1906      1014      1015      1984
 -1      3153    3    0    1
 -2      1957       794      1967      2015
 -1      3154    3    0    1
 -2      1628       964       965       960
 -1      3155    3    0    1
 -2      1843      1674      1844      1460
 -1      3156    3    0    1
 -2       184       749      1601       185
 -1      3157    3    0    1
 -2        34         4        47      2066
 -1      3158    3    0    1
 -2      1520      1734      1381      1733
 -1      3159    3    0    1
 -2      1529      1558      1860      1834
 -1      3160    3    0    1
 -2      1434      1726      1725      1954
 -1      3161    3    0    1
 -2      1829      1500      1855      2011
 -1      3162    3    0    1
 -2      1275      1281      1694      1282
 -1      3163    3    0    1
 -2      1626      1726      1829      2017
 -1      3164    3    0    1
 -2       650       644       651      1449
 -1      3165    3    0    1
 -2      1264      1271      1520      1964
 -1      3166    3    0    1
 -2      1486      1000      1005      1456
 -1      3167    3    0    1
 -2       239      1301      1682       238
 -1      3168    3    0    1
 -2      1309       247      1340       246
 -1      3169    3    0    1
 -2      1859      1442      1469      1857
 -1      3170    3    0    1
 -2      1276      1565      1277      1537
 -1      3171    3    0    1
 -2      1646       794      1957      2015
 -1      3172    3    0    1
 -2      1599      1572      1841       967
 -1      3173    3    0    1
 -2       763       762      1545       769
 -1      3174    3    0    1
 -2      1340      1335      1341      1974
 -1      3175    3    0    1
 -2       774       780       773      1720
 -1      3176    3    0    1
 -2      1366       678       686       679
 -1      3177    3    0    1
 -2      1442      1855      1856      1966
 -1      3178    3    0    1
 -2      1529      1860      1484      1834
 -1      3179    3    0    1
 -2       962       963       967      1450
 -1      3180    3    0    1
 -2       970      1867       965      1572
 -1      3181    3    0    1
 -2      1736      1362      1605      2056
 -1      3182    3    0    1
 -2      1835      1565      1709      1836
 -1      3183    3    0    1
 -2      1430      1760      1364      1862
 -1      3184    3    0    1
 -2       987      1543      1514       986
 -1      3185    3    0    1
 -2      1713      2052      1969      1751
 -1      3186    3    0    1
 -2      1544      1515      1768      1870
 -1      3187    3    0    1
 -2      1268      1724      1274      1267
 -1      3188    3    0    1
 -2       923       922       917      1592
 -1      3189    3    0    1
 -2      1407      1433      1239      1240
 -1      3190    3    0    1
 -2       963       230       231      1450
 -1      3191    3    0    1
 -2       656      1627      1654      1878
 -1      3192    3    0    1
 -2      1459      1488      1913      1911
 -1      3193    3    0    1
 -2       948       947       942      1507
 -1      3194    3    0    1
 -2      1712      1872      1875      1679
 -1      3195    3    0    1
 -2      1656       537      1534       544
 -1      3196    3    0    1
 -2      1885      1521      1657      1887
 -1      3197    3    0    1
 -2      1603      1630      1883      2036
 -1      3198    3    0    1
 -2      1592      1363       922      1853
 -1      3199    3    0    1
 -2      1641      1125      1124      2070
 -1      3200    3    0    1
 -2      1655       714      1683      1999
 -1      3201    3    0    1
 -2      1350      1849      1875      1679
 -1      3202    3    0    1
 -2      1914      1913      1488      1550
 -1      3203    3    0    1
 -2       693       699       692      1712
 -1      3204    3    0    1
 -2      1679       937       942      1536
 -1      3205    3    0    1
 -2       657      1378       656      1406
 -1      3206    3    0    1
 -2      1853      1363       917      1392
 -1      3207    3    0    1
 -2      1627       656      1378      1878
 -1      3208    3    0    1
 -2      1887      1521      1657      1884
 -1      3209    3    0    1
 -2       916      1363       915      1392
 -1      3210    3    0    1
 -2       912      1619      1392      1854
 -1      3211    3    0    1
 -2      1462      1881      1491      1883
 -1      3212    3    0    1
 -2      1432       643      1406      1968
 -1      3213    3    0    1
 -2      1506       890       895      1910
 -1      3214    3    0    1
 -2       700       706      1683       707
 -1      3215    3    0    1
 -2       912       913       918      1619
 -1      3216    3    0    1
 -2      1750      1607      1749      1561
 -1      3217    3    0    1
 -2      1216      1222      1391      1223
 -1      3218    3    0    1
 -2       972      1423       978       977
 -1      3219    3    0    1
 -2       693      1366      1712      1993
 -1      3220    3    0    1
 -2      1750      1607      1748      1372
 -1      3221    3    0    1
 -2      1265      1264      1258      1678
 -1      3222    3    0    1
 -2       961       960       956      1625
 -1      3223    3    0    1
 -2       951      1871      1652      1625
 -1      3224    3    0    1
 -2      1507       953       952      1477
 -1      3225    3    0    1
 -2      1559      1153        71       378
 -1      3226    3    0    1
 -2      1426       709       702       708
 -1      3227    3    0    1
 -2       926      1876      1363      1708
 -1      3228    3    0    1
 -2      1206      1205      1199      1358
 -1      3229    3    0    1
 -2      1559      1531       384       383
 -1      3230    3    0    1
 -2      1400      1531      1748      1777
 -1      3231    3    0    1
 -2      1583      1116      1109      1108
 -1      3232    3    0    1
 -2      1170      1577      1176      1169
 -1      3233    3    0    1
 -2      1876      1693      1366      1987
 -1      3234    3    0    1
 -2      1169      1170      1603      1163
 -1      3235    3    0    1
 -2      1396      1267      1724      2027
 -1      3236    3    0    1
 -2      1392      1853      1879      1435
 -1      3237    3    0    1
 -2      1378      1878      1880      1435
 -1      3238    3    0    1
 -2      1415      1178      1177      1388
 -1      3239    3    0    1
 -2      1448       572      2040      1475
 -1      3240    3    0    1
 -2      1536       943       942      1507
 -1      3241    3    0    1
 -2      1597      1299      1461      2053
 -1      3242    3    0    1
 -2      1881      1156      1468      1630
 -1      3243    3    0    1
 -2      1199      1358      1192      1193
 -1      3244    3    0    1
 -2      1674      1212      1213      1703
 -1      3245    3    0    1
 -2       441       445      1509       446
 -1      3246    3    0    1
 -2       926       925      1876      1708
 -1      3247    3    0    1
 -2      1107      1106      1100      1370
 -1      3248    3    0    1
 -2      1915      1916      1606      1354
 -1      3249    3    0    1
 -2       228       229      1477      1231
 -1      3250    3    0    1
 -2      1008      1012      1682      1013
 -1      3251    3    0    1
 -2      1344       798      1349      1961
 -1      3252    3    0    1
 -2      1838      1724      1379      2027
 -1      3253    3    0    1
 -2      1364      1763      1393      1737
 -1      3254    3    0    1
 -2      1727       485      1368       484
 -1      3255    3    0    1
 -2      1278      1284      1277      1490
 -1      3256    3    0    1
 -2       795      1339      2020       796
 -1      3257    3    0    1
 -2      1829      1335      1336      1960
 -1      3258    3    0    1
 -2      1289      1508      1290      1296
 -1      3259    3    0    1
 -2      1304      1310      1303      1960
 -1      3260    3    0    1
 -2      1331      1326      1726      1325
 -1      3261    3    0    1
 -2       139       140       482      1631
 -1      3262    3    0    1
 -2       697       691       698      1544
 -1      3263    3    0    1
 -2      1728      1397      1754      1351
 -1      3264    3    0    1
 -2      1266       235       983      1273
 -1      3265    3    0    1
 -2      1766       431       426      1538
 -1      3266    3    0    1
 -2      1831      1500      1857      1626
 -1      3267    3    0    1
 -2      1738      1737      1578      1620
 -1      3268    3    0    1
 -2      1263      1270      1565      1520
 -1      3269    3    0    1
 -2      1730      1728      1461      1696
 -1      3270    3    0    1
 -2      1624      1278      1285      1279
 -1      3271    3    0    1
 -2      1733      1680      1351      1730
 -1      3272    3    0    1
 -2      1341      1830      1340      1974
 -1      3273    3    0    1
 -2       245      1330      1310       244
 -1      3274    3    0    1
 -2      1720      1673      1755       780
 -1      3275    3    0    1
 -2      1537      1694      1275      1943
 -1      3276    3    0    1
 -2      1832      1831      1653      1508
 -1      3277    3    0    1
 -2      1832      1665      1694      1834
 -1      3278    3    0    1
 -2       444       445       450      1479
 -1      3279    3    0    1
 -2      1387      1414       731      1763
 -1      3280    3    0    1
 -2       937       943       942      1536
 -1      3281    3    0    1
 -2      1403      1759      1709      1861
 -1      3282    3    0    1
 -2      1282      1832      1694      1537
 -1      3283    3    0    1
 -2      1261      1269      1565      1262
 -1      3284    3    0    1
 -2      1578      1436      1736      1735
 -1      3285    3    0    1
 -2      1556      1867      1613      1865
 -1      3286    3    0    1
 -2      1479      1451       449      1735
 -1      3287    3    0    1
 -2       738       737      1387       744
 -1      3288    3    0    1
 -2      1591      1518       601      1547
 -1      3289    3    0    1
 -2       231       973       968      1252
 -1      3290    3    0    1
 -2      1631       481       476      1754
 -1      3291    3    0    1
 -2      1447      1767      1515      1768
 -1      3292    3    0    1
 -2        86      1265      1678        87
 -1      3293    3    0    1
 -2       458      1265        87      1678
 -1      3294    3    0    1
 -2      1709      1565      1734      1836
 -1      3295    3    0    1
 -2      1865      1613      1364      1839
 -1      3296    3    0    1
 -2      1593      1261      1262      1254
 -1      3297    3    0    1
 -2      1839      1379      1593      1254
 -1      3298    3    0    1
 -2      1753      1667      1755      1646
 -1      3299    3    0    1
 -2      1691      1649      1807      1934
 -1      3300    3    0    1
 -2      1322      1751      1317      1323
 -1      3301    3    0    1
 -2      1332      1855      1752      1333
 -1      3302    3    0    1
 -2      1949       275      1801       280
 -1      3303    3    0    1
 -2      1830      1856      1342      1347
 -1      3304    3    0    1
 -2      1624      1597       473      1286
 -1      3305    3    0    1
 -2      1839      1613      1379      1841
 -1      3306    3    0    1
 -2      1461      1730      1696      1729
 -1      3307    3    0    1
 -2      1686      1658       472       471
 -1      3308    3    0    1
 -2      1371      1399       447       722
 -1      3309    3    0    1
 -2      1707      1678       448      1251
 -1      3310    3    0    1
 -2      1732      1520      1731      1651
 -1      3311    3    0    1
 -2       469      1397       474      1624
 -1      3312    3    0    1
 -2       473       469      1624       468
 -1      3313    3    0    1
 -2      1760      1734      1381      1409
 -1      3314    3    0    1
 -2      1509       436       435       440
 -1      3315    3    0    1
 -2      1290      1508      1283      1284
 -1      3316    3    0    1
 -2       245      1309      1335       246
 -1      3317    3    0    1
 -2      1461      1727      1597      2053
 -1      3318    3    0    1
 -2       212      1413      1112       873
 -1      3319    3    0    1
 -2      1278      1624      1651      1279
 -1      3320    3    0    1
 -2      1493       293       294       289
 -1      3321    3    0    1
 -2      1027        53      1034      1493
 -1      3322    3    0    1
 -2      1247      1253      1379      1254
 -1      3323    3    0    1
 -2       241        12        99      2048
 -1      3324    3    0    1
 -2      1747      1472      1717      1744
 -1      3325    3    0    1
 -2      1727      1434      1461      1729
 -1      3326    3    0    1
 -2      1156      1881      1468      1441
 -1      3327    3    0    1
 -2       416      1481      1770       411
 -1      3328    3    0    1
 -2      1853      1619      1592      1175
 -1      3329    3    0    1
 -2      1202      1209      1208      2062
 -1      3330    3    0    1
 -2      1440       709      1467      1951
 -1      3331    3    0    1
 -2      1750      1441      1172      1400
 -1      3332    3    0    1
 -2      1468      1158      1779      1427
 -1      3333    3    0    1
 -2        77      1202      1445        78
 -1      3334    3    0    1
 -2       405       400      1621       404
 -1      3335    3    0    1
 -2      1766      1496      1769      1453
 -1      3336    3    0    1
 -2      1522      1496      1769      1766
 -1      3337    3    0    1
 -2      1244        84       443        83
 -1      3338    3    0    1
 -2      1678      1451      1732      1735
 -1      3339    3    0    1
 -2      1372      1748      1400      2065
 -1      3340    3    0    1
 -2      1648      1774      1607      1748
 -1      3341    3    0    1
 -2       626      1662       625       619
 -1      3342    3    0    1
 -2      1568      1774      1540       396
 -1      3343    3    0    1
 -2      1910      1909      1476      1432
 -1      3344    3    0    1
 -2       444       449      1707      1479
 -1      3345    3    0    1
 -2      1875      1873      1693      1380
 -1      3346    3    0    1
 -2      1568       645       392       652
 -1      3347    3    0    1
 -2      1559      1777      1531      1935
 -1      3348    3    0    1
 -2        54        53       288      1493
 -1      3349    3    0    1
 -2      1493       283       288       289
 -1      3350    3    0    1
 -2      1609      1582       653      2046
 -1      3351    3    0    1
 -2      1594      1621      1770      1744
 -1      3352    3    0    1
 -2      1907      1681      1805      1654
 -1      3353    3    0    1
 -2      1853      1850      1363      1408
 -1      3354    3    0    1
 -2      1620      1578      1242      1249
 -1      3355    3    0    1
 -2      1769      1481       416       421
 -1      3356    3    0    1
 -2      1509      1736      1762      1479
 -1      3357    3    0    1
 -2       711       710      1515      1485
 -1      3358    3    0    1
 -2      1464       293       298       294
 -1      3359    3    0    1
 -2      1272      1265      1651      1964
 -1      3360    3    0    1
 -2       420       416      1594       415
 -1      3361    3    0    1
 -2      1738      1605      1647      1242
 -1      3362    3    0    1
 -2      1746      1533      1772      1504
 -1      3363    3    0    1
 -2      1361      1802      1598      1800
 -1      3364    3    0    1
 -2      1887      1685      1356      1975
 -1      3365    3    0    1
 -2      1776      1775      1582      1607
 -1      3366    3    0    1
 -2       216       215      1133      1701
 -1      3367    3    0    1
 -2       710       702       703      1467
 -1      3368    3    0    1
 -2      1414      1440      1764      1762
 -1      3369    3    0    1
 -2      1702      1686      1757      1658
 -1      3370    3    0    1
 -2       318      1069        59      1410
 -1      3371    3    0    1
 -2      1463      1736      1605      1738
 -1      3372    3    0    1
 -2      1762      1440      1764      1463
 -1      3373    3    0    1
 -2      1457      1764       724      1485
 -1      3374    3    0    1
 -2      1566      1522      1766      1740
 -1      3375    3    0    1
 -2      1717      1749      1580      1746
 -1      3376    3    0    1
 -2      1898      1900      1480      1510
 -1      3377    3    0    1
 -2       313      1062       308      1410
 -1      3378    3    0    1
 -2      1770      1525      1554      1955
 -1      3379    3    0    1
 -2      1772      1525      1770      1551
 -1      3380    3    0    1
 -2       442      1399       446       441
 -1      3381    3    0    1
 -2      1768      1467      1496      1766
 -1      3382    3    0    1
 -2       124       412       407      1511
 -1      3383    3    0    1
 -2      1679       942      1846      1536
 -1      3384    3    0    1
 -2       417      1481       416       411
 -1      3385    3    0    1
 -2      1797      1585      1437      1794
 -1      3386    3    0    1
 -2       308      1062      1055      1410
 -1      3387    3    0    1
 -2      1612       294       295      1798
 -1      3388    3    0    1
 -2      1511      1773      1621       406
 -1      3389    3    0    1
 -2      1687      1208      1201      1207
 -1      3390    3    0    1
 -2      1873      1573      1874      1504
 -1      3391    3    0    1
 -2      1519      1191      1548      1190
 -1      3392    3    0    1
 -2      1586      1835      1836      1724
 -1      3393    3    0    1
 -2        83      1237        82      1362
 -1      3394    3    0    1
 -2      1557      1819      1528      1793
 -1      3395    3    0    1
 -2       313       318      1410       319
 -1      3396    3    0    1
 -2      1242      1605      1647      1235
 -1      3397    3    0    1
 -2      1445      1744      1687      2067
 -1      3398    3    0    1
 -2      1525       681       674      1955
 -1      3399    3    0    1
 -2       443      1244      1362      1707
 -1      3400    3    0    1
 -2      1544       691      1664      1873
 -1      3401    3    0    1
 -2      1749      1533      1580      1746
 -1      3402    3    0    1
 -2      1522      1743      1551      1745
 -1      3403    3    0    1
 -2      1474      1522      1745      1742
 -1      3404    3    0    1
 -2       398       393       394      1502
 -1      3405    3    0    1
 -2      1559      1160      1531       383
 -1      3406    3    0    1
 -2      1191      1548      1848      1519
 -1      3407    3    0    1
 -2      1695      1869      1447      1843
 -1      3408    3    0    1
 -2      1647      1226      1433      1233
 -1      3409    3    0    1
 -2      1398      1100      1370      1890
 -1      3410    3    0    1
 -2       366      1649      1807      1389
 -1      3411    3    0    1
 -2      1853      1183      1176      1175
 -1      3412    3    0    1
 -2      1477       963       962      1450
 -1      3413    3    0    1
 -2      1565      1734      1263      1520
 -1      3414    3    0    1
 -2      1737      1839      1593      1620
 -1      3415    3    0    1
 -2      1423      1253      1259      2027
 -1      3416    3    0    1
 -2      1599       962       967      1450
 -1      3417    3    0    1
 -2       425       429       424      1538
 -1      3418    3    0    1
 -2      1209      1418        80      1216
 -1      3419    3    0    1
 -2      1707       448        85      1251
 -1      3420    3    0    1
 -2      1156      1881      1603      1630
 -1      3421    3    0    1
 -2      1883      1672      1884      1446
 -1      3422    3    0    1
 -2      1596      1088      1081      1636
 -1      3423    3    0    1
 -2        74      1181      1174      1502
 -1      3424    3    0    1
 -2      1417      1819       321      1444
 -1      3425    3    0    1
 -2      1630      1672      1884      1883
 -1      3426    3    0    1
 -2      1823      1571      1825      1542
 -1      3427    3    0    1
 -2       384      1531       389       383
 -1      3428    3    0    1
 -2      1916      1814      1448      1384
 -1      3429    3    0    1
 -2      1455      1815      1499      1789
 -1      3430    3    0    1
 -2       356       361       360      1416
 -1      3431    3    0    1
 -2      1882      1521      1491      1884
 -1      3432    3    0    1
 -2      1583      1889      1370      1890
 -1      3433    3    0    1
 -2      1569      1610      1095      1976
 -1      3434    3    0    1
 -2      1405      1802      1552      1905
 -1      3435    3    0    1
 -2      1913      1503      1914      1535
 -1      3436    3    0    1
 -2       852       857      1588      1895
 -1      3437    3    0    1
 -2      1560       871       867       866
 -1      3438    3    0    1
 -2      1526      1130      1122      1129
 -1      3439    3    0    1
 -2       547      1458       548       555
 -1      3440    3    0    1
 -2      1790      1596      1455      1789
 -1      3441    3    0    1
 -2       601      1547       600       593
 -1      3442    3    0    1
 -2      1798      1612      1464      1797
 -1      3443    3    0    1
 -2      1813      1811      1402      1374
 -1      3444    3    0    1
 -2      1374      1719      1808      1782
 -1      3445    3    0    1
 -2      1512      1374      1785      1782
 -1      3446    3    0    1
 -2      1359      1622      1804      1807
 -1      3447    3    0    1
 -2      1648       394      1502       399
 -1      3448    3    0    1
 -2      1691      1807      1662      1934
 -1      3449    3    0    1
 -2       547      1458       555      1417
 -1      3450    3    0    1
 -2      1147      1141      1701      1140
 -1      3451    3    0    1
 -2       293      1464      1493       294
 -1      3452    3    0    1
 -2      1915      1579      1912      1699
 -1      3453    3    0    1
 -2       547      1458      2060       548
 -1      3454    3    0    1
 -2      1780      1778      1454      1427
 -1      3455    3    0    1
 -2      1614      1641      1782      2070
 -1      3456    3    0    1
 -2      1449       658       909      1942
 -1      3457    3    0    1
 -2      1784      1699      1810      1670
 -1      3458    3    0    1
 -2       583      1376       584       590
 -1      3459    3    0    1
 -2      1791      1817      1429      1384
 -1      3460    3    0    1
 -2      1660      1633      1919      1893
 -1      3461    3    0    1
 -2      1535      1914       875       880
 -1      3462    3    0    1
 -2      1623      1068      1650      1067
 -1      3463    3    0    1
 -2       527      1501       526       519
 -1      3464    3    0    1
 -2      1697      1786      1668      2071
 -1      3465    3    0    1
 -2      1081      1088      1087      1636
 -1      3466    3    0    1
 -2      1483      1458      1821      1819
 -1      3467    3    0    1
 -2      1668      1110      1104      2071
 -1      3468    3    0    1
 -2      1786      1402      1443      1785
 -1      3469    3    0    1
 -2      1801      1980       282      2058
 -1      3470    3    0    1
 -2      1517      1820      1822      1487
 -1      3471    3    0    1
 -2      1534       550       543       549
 -1      3472    3    0    1
 -2      1881      1589      1441      1852
 -1      3473    3    0    1
 -2      1881      1630      1491      1883
 -1      3474    3    0    1
 -2      1635       639       640       633
 -1      3475    3    0    1
 -2      1784      1512      1123      1482
 -1      3476    3    0    1
 -2      1431      1817      1475      1950
 -1      3477    3    0    1
 -2      1360      1812      1815      1404
 -1      3478    3    0    1
 -2      1642       841       842       837
 -1      3479    3    0    1
 -2       311      1820       316      1557
 -1      3480    3    0    1
 -2      1417       321       322      1444
 -1      3481    3    0    1
 -2      1480      1452      1897      1065
 -1      3482    3    0    1
 -2      1596      1790      1455      1792
 -1      3483    3    0    1
 -2      1801      1980      2058       284
 -1      3484    3    0    1
 -2      1569      1541      1102      1788
 -1      3485    3    0    1
 -2      1668      1541      1786      1785
 -1      3486    3    0    1
 -2      1691       605      1721       604
 -1      3487    3    0    1
 -2       625      1804      1662       632
 -1      3488    3    0    1
 -2      1104       343      1697        64
 -1      3489    3    0    1
 -2      1088      1089      1569      1596
 -1      3490    3    0    1
 -2      1389      1807       371       370
 -1      3491    3    0    1
 -2      1719      1482      1781      1782
 -1      3492    3    0    1
 -2      1782      1781      1389      1614
 -1      3493    3    0    1
 -2      1359       371      1622      1807
 -1      3494    3    0    1
 -2      1595       381      1804      1704
 -1      3495    3    0    1
 -2      1083        61      1352       328
 -1      3496    3    0    1
 -2      1542      1494      1822      1796
 -1      3497    3    0    1
 -2      1107      1108      1114      1583
 -1      3498    3    0    1
 -2      2010      1706      1464      1040
 -1      3499    3    0    1
 -2      1802       266       265      1905
 -1      3500    3    0    1
 -2       295       291      1639       290
 -1      3501    3    0    1
 -2      1029      1035      1539      1036
 -1      3502    3    0    1
 -2       659       407      1511       666
 -1      3503    3    0    1
 -2       290       286      1639       285
 -1      3504    3    0    1
 -2       307       306      1471       312
 -1      3505    3    0    1
 -2      1464      1437      1047      1797
 -1      3506    3    0    1
 -2       319      1382      1410      1793
 -1      3507    3    0    1
 -2       326       321      1417      1528
 -1      3508    3    0    1
 -2       304       305       310      1585
 -1      3509    3    0    1
 -2      1700       830       835      1669
 -1      3510    3    0    1
 -2      1639       294       295       289
 -1      3511    3    0    1
 -2       107       540      1444       106
 -1      3512    3    0    1
 -2      2059      1230      1229      1236
 -1      3513    3    0    1
 -2      1571      1798      1800      1706
 -1      3514    3    0    1
 -2      1501       301       306       307
 -1      3515    3    0    1
 -2      1048        56       303       298
 -1      3516    3    0    1
 -2      1401      1903      1373      1901
 -1      3517    3    0    1
 -2      1932       805       800      1412
 -1      3518    3    0    1
 -2      1827       279      1949      1979
 -1      3519    3    0    1
 -2        50       284       283      1980
 -1      3520    3    0    1
 -2      1639      1493       294       289
 -1      3521    3    0    1
 -2       802       803       808      1608
 -1      3522    3    0    1
 -2       258       264       259      1931
 -1      3523    3    0    1
 -2      1465      1718      1897      1898
 -1      3524    3    0    1
 -2      1924      1534      1822      1465
 -1      3525    3    0    1
 -2      1464       303      1048      1437
 -1      3526    3    0    1
 -2      1571      1825      1523      1826
 -1      3527    3    0    1
 -2       291      1827      1530      1639
 -1      3528    3    0    1
 -2       285        49        48      1949
 -1      3529    3    0    1
 -2      1495      1425      1896      1452
 -1      3530    3    0    1
 -2       275       280       281      1801
 -1      3531    3    0    1
 -2      1828      1598      1827      2003
 -1      3532    3    0    1
 -2      1684       530      1562       537
 -1      3533    3    0    1
 -2      1714      1928      1930      1401
 -1      3534    3    0    1
 -2      1684      1926      1924      1373
 -1      3535    3    0    1
 -2      1793      1061      1410      1650
 -1      3536    3    0    1
 -2       500      2057      2051      1997
 -1      3537    3    0    1
 -2      1639      1827      1598      1801
 -1      3538    3    0    1
 -2      1505      1534      1923      1821
 -1      3539    3    0    1
 -2      1797      1571      1542      1799
 -1      3540    3    0    1
 -2       309      1437      1585      1794
 -1      3541    3    0    1
 -2      1034        53        54      1493
 -1      3542    3    0    1
 -2      1571      1612      1824      1798
 -1      3543    3    0    1
 -2       535       534      1517      1487
 -1      3544    3    0    1
 -2      1818      1411      1455      1792
 -1      3545    3    0    1
 -2       542       541       535      1487
 -1      3546    3    0    1
 -2      1018      1025      1024      2018
 -1      3547    3    0    1
 -2       308       309       313      1410
 -1      3548    3    0    1
 -2      1369      1932      1930      1428
 -1      3549    3    0    1
 -2      1898      1722      1494      1901
 -1      3550    3    0    1
 -2      1523      1494      1927      1825
 -1      3551    3    0    1
 -2      1562      1590      1927      1825
 -1      3552    3    0    1
 -2      1590      1562       528      1825
 -1      3553    3    0    1
 -2      1562      1927      1494      1825
 -1      3554    3    0    1
 -2      2001      1906       802      2016
 -1      3555    3    0    1
 -2      1818      1483      1821      1438
 -1      3556    3    0    1
 -2      1541      1103      1110      2071
 -1      3557    3    0    1
 -2      1824      1612      1639      1798
 -1      3558    3    0    1
 -2      1411      1791      1636      1893
 -1      3559    3    0    1
 -2      1927      1590      1523      1825
 -1      3560    3    0    1
 -2      1903      1353      1581      1904
 -1      3561    3    0    1
 -2      1906      1428      1567      1904
 -1      3562    3    0    1
 -2       521       520       514      1546
 -1      3563    3    0    1
 -2      1014      1021       199       808
 -1      3564    3    0    1
 -2      1353       811       816       812
 -1      3565    3    0    1
 -2       510       511      1412      2047
 -1      3566    3    0    1
 -2      1802       271       266       272
 -1      3567    3    0    1
 -2      1822      1494      1924      1465
 -1      3568    3    0    1
 -2      1421       600      1394      1945
 -1      3569    3    0    1
 -2      1355      1385       820      1929
 -1      3570    3    0    1
 -2      1799      1542      1677      1796
 -1      3571    3    0    1
 -2       802       807       806      1383
 -1      3572    3    0    1
 -2      1698      1553       822       827
 -1      3573    3    0    1
 -2      1022      1016      1567      1015
 -1      3574    3    0    1
 -2      1070      1063      1071      1495
 -1      3575    3    0    1
 -2      1148      1155      1672      1630
 -1      3576    3    0    1
 -2      1630      1603      1155      2036
 -1      3577    3    0    1
 -2      1446      1883      1672       902
 -1      3578    3    0    1
 -2      1376      1814       584      1421
 -1      3579    3    0    1
 -2      1579      1915      1917      1606
 -1      3580    3    0    1
 -2      1039      1033      1706      1032
 -1      3581    3    0    1
 -2      1656      1925      1629      1923
 -1      3582    3    0    1
 -2      1636      1425      1079      1982
 -1      3583    3    0    1
 -2       898      1701       216      1140
 -1      3584    3    0    1
 -2      1610      1788      1583      1890
 -1      3585    3    0    1
 -2        58      1069      1062      1410
 -1      3586    3    0    1
 -2      1521      1882      1657      1884
 -1      3587    3    0    1
 -2      1488      1912      1550      1911
 -1      3588    3    0    1
 -2      1374      1699      1810      1784
 -1      3589    3    0    1
 -2      1476       169       894       637
 -1      3590    3    0    1
 -2      1419       906       911       907
 -1      3591    3    0    1
 -2      1670      1699      1912      1886
 -1      3592    3    0    1
 -2      1506       895      1476      1910
 -1      3593    3    0    1
 -2       166      1535       623       616
 -1      3594    3    0    1
 -2      1910       895      1476      1446
 -1      3595    3    0    1
 -2      1892      1398      1633      1895
 -1      3596    3    0    1
 -2      1547      1576      1916       586
 -1      3597    3    0    1
 -2      1660      1615      1921      1895
 -1      3598    3    0    1
 -2      1050      1057      1056      1524
 -1      3599    3    0    1
 -2       566       574      1644       567
 -1      3600    3    0    1
 -2      1791      1792      1411      1636
 -1      3601    3    0    1
 -2      1413       862      1439      1892
 -1      3602    3    0    1
 -2      1028      1581       813      1608
 -1      3603    3    0    1
 -2      1369      1617      1931      1928
 -1      3604    3    0    1
 -2       806       805       800      1383
 -1      3605    3    0    1
 -2       151      1412       804       152
 -1      3606    3    0    1
 -2      1825      1546      1590      1826
 -1      3607    3    0    1
 -2      1939       501       502      2054
 -1      3608    3    0    1
 -2      1040      1046      1039      1706
 -1      3609    3    0    1
 -2      1817      1919      1411      1475
 -1      3610    3    0    1
 -2      1923      1534      1924      1465
 -1      3611    3    0    1
 -2      1081      1596      1792      1623
 -1      3612    3    0    1
 -2      1923      1924      1718      1465
 -1      3613    3    0    1
 -2      1924      1927      1684      1373
 -1      3614    3    0    1
 -2      1048      1041      1464      1047
 -1      3615    3    0    1
 -2      1684      1927      1929      1373
 -1      3616    3    0    1
 -2      1656      1700      1925      1926
 -1      3617    3    0    1
 -2      1038      1039      1046      1377
 -1      3618    3    0    1
 -2      1677      1650      1054      1053
 -1      3619    3    0    1
 -2       282        50       283      1980
 -1      3620    3    0    1
 -2      1920      1660      1894      1688
 -1      3621    3    0    1
 -2       511       799       150       151
 -1      3622    3    0    1
 -2      1510      1051      1044      1050
 -1      3623    3    0    1
 -2      1926      1355       825      1698
 -1      3624    3    0    1
 -2      1377      1800      1405      2009
 -1      3625    3    0    1
 -2      1401      1930      1353      1904
 -1      3626    3    0    1
 -2      1567      1608      1904      2005
 -1      3627    3    0    1
 -2      1373      1903      1929      1698
 -1      3628    3    0    1
 -2        40      1019       277      1020
 -1      3629    3    0    1
 -2       249       253      1932      2047
 -1      3630    3    0    1
 -2      1510      1903      1553      1043
 -1      3631    3    0    1
 -2       252        45      1014      1984
 -1      3632    3    0    1
 -2       553      1671       834       157
 -1      3633    3    0    1
 -2      1927      1523      1928      1401
 -1      3634    3    0    1
 -2      1553       828      1049       203
 -1      3635    3    0    1
 -2      1401      1428      1930      1904
 -1      3636    3    0    1
 -2       659       407       402      1511
 -1      3637    3    0    1
 -2       204       838       833      1524
 -1      3638    3    0    1
 -2       825      1700       824      1355
 -1      3639    3    0    1
 -2       198      1014       199       808
 -1      3640    3    0    1
 -2      1063       205       838      1495
 -1      3641    3    0    1
 -2       811       805       806      1383
 -1      3642    3    0    1
 -2       272      1802       271      1985
 -1      3643    3    0    1
 -2       275       281       276      1801
 -1      3644    3    0    1
 -2      1064      1452      1071      2006
 -1      3645    3    0    1
 -2      1688      1718      1925      1899
 -1      3646    3    0    1
 -2      1361      1025      1026      1019
 -1      3647    3    0    1
 -2      1493       288       293       289
 -1      3648    3    0    1
 -2      1906       255      1932       250
 -1      3649    3    0    1
 -2      1801       282       277      2058
 -1      3650    3    0    1
 -2      1100      1094      1610      1093
 -1      3651    3    0    1
 -2        45       252       257      1984
 -1      3652    3    0    1
 -2      1050      1510      1553      1043
 -1      3653    3    0    1
 -2      1715      1120      1113      1386
 -1      3654    3    0    1
 -2      1576      1918      1921      1618
 -1      3655    3    0    1
 -2      1446      1672      1884       897
 -1      3656    3    0    1
 -2      1506       890       885       884
 -1      3657    3    0    1
 -2       892      1701       887       893
 -1      3658    3    0    1
 -2       903       898       217      1672
 -1      3659    3    0    1
 -2      1497      1142      1135      1657
 -1      3660    3    0    1
 -2      1657      1134      1135      1685
 -1      3661    3    0    1
 -2       892       896      1473       897
 -1      3662    3    0    1
 -2      1560      1917      1918      1606
 -1      3663    3    0    1
 -2       304       308       303      1437
 -1      3664    3    0    1
 -2      1896       842       847      1495
 -1      3665    3    0    1
 -2       291       286      1639       290
 -1      3666    3    0    1
 -2      1035      1028      1581       201
 -1      3667    3    0    1
 -2      1598      1824      1639      1798
 -1      3668    3    0    1
 -2       198        46       252         6
 -1      3669    3    0    1
 -2       294      1639       295      1798
 -1      3670    3    0    1
 -2       158       844       159       567
 -1      3671    3    0    1
 -2       884       623      1506       167
 -1      3672    3    0    1
 -2       283      1027       288        53
 -1      3673    3    0    1
 -2       885      1535      1913      1506
 -1      3674    3    0    1
 -2        52      1027       283        53
 -1      3675    3    0    1
 -2      1910      1506      1459       629
 -1      3676    3    0    1
 -2       152       151      1412       518
 -1      3677    3    0    1
 -2      1633      1921      1588      1895
 -1      3678    3    0    1
 -2      1576       580      1618      2037
 -1      3679    3    0    1
 -2      1591       860       865      1560
 -1      3680    3    0    1
 -2       310       311       315      1557
 -1      3681    3    0    1
 -2      1576       580       587      2028
 -1      3682    3    0    1
 -2      1495       838      1524       837
 -1      3683    3    0    1
 -2      1053      1677      1046      1047
 -1      3684    3    0    1
 -2      1455      1499      1790      1789
 -1      3685    3    0    1
 -2      1458      1816      1818      1431
 -1      3686    3    0    1
 -2       869       864       602       164
 -1      3687    3    0    1
 -2      1618      1576      1918      2028
 -1      3688    3    0    1
 -2      1563      1914       875      1535
 -1      3689    3    0    1
 -2       159       844      1644       567
 -1      3690    3    0    1
 -2      1048        55        56       298
 -1      3691    3    0    1
 -2       299      1612       305       304
 -1      3692    3    0    1
 -2       834       158      1671       839
 -1      3693    3    0    1
 -2       303      1464      1048       298
 -1      3694    3    0    1
 -2      1547      1518       601       600
 -1      3695    3    0    1
 -2       165       874       166       616
 -1      3696    3    0    1
 -2      1612      1464       294      1798
 -1      3697    3    0    1
 -2       288       293        54      1493
 -1      3698    3    0    1
 -2       874       165       609       616
 -1      3699    3    0    1
 -2      1027       283       288      1493
 -1      3700    3    0    1
 -2      1560       872      1532      1891
 -1      3701    3    0    1
 -2      1535      1563      1914      2045
 -1      3702    3    0    1
 -2      1854      1462      1419      1883
 -1      3703    3    0    1
 -2       300      1612       305       299
 -1      3704    3    0    1
 -2       884      1506       168       167
 -1      3705    3    0    1
 -2      1539      1037      1377      1030
 -1      3706    3    0    1
 -2       168      1506       630       167
 -1      3707    3    0    1
 -2       905      1909       900      1419
 -1      3708    3    0    1
 -2       170      1476       899       644
 -1      3709    3    0    1
 -2      1432      1907      1909      1406
 -1      3710    3    0    1
 -2      1877      1775      1600      1627
 -1      3711    3    0    1
 -2       658       665       664      1422
 -1      3712    3    0    1
 -2       621      1459      1488       622
 -1      3713    3    0    1
 -2      2010      1706      1033      1798
 -1      3714    3    0    1
 -2      1363      1879      1876      1395
 -1      3715    3    0    1
 -2      1563      1591       602       869
 -1      3716    3    0    1
 -2        56      1055      1048      1437
 -1      3717    3    0    1
 -2      1591      1917      1918      1560
 -1      3718    3    0    1
 -2       907       908      1645       902
 -1      3719    3    0    1
 -2       895       894      1506      1476
 -1      3720    3    0    1
 -2       910       914      1422       915
 -1      3721    3    0    1
 -2       324      1382       318       319
 -1      3722    3    0    1
 -2      1805       640      1635      1609
 -1      3723    3    0    1
 -2       158      1671       567       560
 -1      3724    3    0    1
 -2       316       315       311      1557
 -1      3725    3    0    1
 -2       117       118       377      1622
 -1      3726    3    0    1
 -2       876       872       877      1532
 -1      3727    3    0    1
 -2      1579      1914      1912      1550
 -1      3728    3    0    1
 -2      1672      1446       902       897
 -1      3729    3    0    1
 -2      1636      1072      1663      1982
 -1      3730    3    0    1
 -2      1912      1914      1488      1550
 -1      3731    3    0    1
 -2       319       315       320      1557
 -1      3732    3    0    1
 -2       106       322       317      1444
 -1      3733    3    0    1
 -2      1370      1099      1398      1973
 -1      3734    3    0    1
 -2       889       890      1506       884
 -1      3735    3    0    1
 -2        56      1048       303      1437
 -1      3736    3    0    1
 -2      1437       309       308      1410
 -1      3737    3    0    1
 -2      1503      1913      1914      1550
 -1      3738    3    0    1
 -2       881      1503       880       876
 -1      3739    3    0    1
 -2      1386      1888       877      1532
 -1      3740    3    0    1
 -2       304       303      1464      1437
 -1      3741    3    0    1
 -2      1706      1046      1677      1047
 -1      3742    3    0    1
 -2      1535      1503      1914       880
 -1      3743    3    0    1
 -2      1576       587      1547      2028
 -1      3744    3    0    1
 -2       106       322      1444       107
 -1      3745    3    0    1
 -2      1062      1055        57       308
 -1      3746    3    0    1
 -2      1532      1560       870       871
 -1      3747    3    0    1
 -2       294      1464      1493      1798
 -1      3748    3    0    1
 -2        55      1041      1034      1464
 -1      3749    3    0    1
 -2      1034       293        54      1464
 -1      3750    3    0    1
 -2      1034        54        55      1464
 -1      3751    3    0    1
 -2        55        54       293      1464
 -1      3752    3    0    1
 -2      1464       304      1437      1797
 -1      3753    3    0    1
 -2      1612       306       305      1585
 -1      3754    3    0    1
 -2        57      1055        56      1437
 -1      3755    3    0    1
 -2      1660      1921      1633      1895
 -1      3756    3    0    1
 -2      1547       601      1591       594
 -1      3757    3    0    1
 -2       208       853      1084       209
 -1      3758    3    0    1
 -2       293        55      1464       298
 -1      3759    3    0    1
 -2       637       168      1506       630
 -1      3760    3    0    1
 -2       564       570       563      1475
 -1      3761    3    0    1
 -2       882       886       881      1503
 -1      3762    3    0    1
 -2      1425      1660      1896      1894
 -1      3763    3    0    1
 -2       298       303      1464       304
 -1      3764    3    0    1
 -2      1615       845      1642      1922
 -1      3765    3    0    1
 -2      1790      1455      1483      1816
 -1      3766    3    0    1
 -2       546      1926       539      1700
 -1      3767    3    0    1
 -2      1918      1633      1576      1921
 -1      3768    3    0    1
 -2       835      1642       840      1671
 -1      3769    3    0    1
 -2      1602      1919      1576      2040
 -1      3770    3    0    1
 -2      1390       332       331       336
 -1      3771    3    0    1
 -2       555      1458       549       556
 -1      3772    3    0    1
 -2      1101      1100      1610      1583
 -1      3773    3    0    1
 -2      1404      1814      1817      1448
 -1      3774    3    0    1
 -2       304       309       308      1437
 -1      3775    3    0    1
 -2       298      1464       299       304
 -1      3776    3    0    1
 -2      1671      1644       845       844
 -1      3777    3    0    1
 -2       840      1642       841       846
 -1      3778    3    0    1
 -2       845      1615      1642       846
 -1      3779    3    0    1
 -2      1642       840       845       846
 -1      3780    3    0    1
 -2      1413       863      1098      1439
 -1      3781    3    0    1
 -2      1439      1398      1092      1973
 -1      3782    3    0    1
 -2      1633      1918      1892      1588
 -1      3783    3    0    1
 -2       299       300      1612       294
 -1      3784    3    0    1
 -2       517      1714       516      1369
 -1      3785    3    0    1
 -2       546      1926      1700      1656
 -1      3786    3    0    1
 -2      1464      1034       293      1493
 -1      3787    3    0    1
 -2      1585      1797      1542      1794
 -1      3788    3    0    1
 -2      1437       304       309      1585
 -1      3789    3    0    1
 -2       304       310       309      1585
 -1      3790    3    0    1
 -2      1798      1571      1612      1797
 -1      3791    3    0    1
 -2      1542      1797      1799      1677
 -1      3792    3    0    1
 -2      1054      1677      1053      1047
 -1      3793    3    0    1
 -2       277      1018      1019        41
 -1      3794    3    0    1
 -2      1820      1557      1585      1794
 -1      3795    3    0    1
 -2      1896      1642      1495      1899
 -1      3796    3    0    1
 -2      1528       320      1557      1793
 -1      3797    3    0    1
 -2       319      1528      1382      1793
 -1      3798    3    0    1
 -2      1513      1793      1794      1650
 -1      3799    3    0    1
 -2      1820      1585      1542      1794
 -1      3800    3    0    1
 -2      1795      1483      1513      1793
 -1      3801    3    0    1
 -2        58      1069      1410        59
 -1      3802    3    0    1
 -2       831      1669       825       826
 -1      3803    3    0    1
 -2       518       517       511      2021
 -1      3804    3    0    1
 -2       155       154       819      1355
 -1      3805    3    0    1
 -2      1355       825      1700      1926
 -1      3806    3    0    1
 -2       203      1553       828       823
 -1      3807    3    0    1
 -2       525       153      1385       518
 -1      3808    3    0    1
 -2       559       565      1629       566
 -1      3809    3    0    1
 -2      1820      1444       316      1557
 -1      3810    3    0    1
 -2      1792      1790      1483      1623
 -1      3811    3    0    1
 -2      1820      1819      1444      1557
 -1      3812    3    0    1
 -2      1901      1722      1799      1377
 -1      3813    3    0    1
 -2      1700       553       834       157
 -1      3814    3    0    1
 -2      1928      1617      1931      1552
 -1      3815    3    0    1
 -2      1385       532       153       525
 -1      3816    3    0    1
 -2      1412       804       799       511
 -1      3817    3    0    1
 -2      1928      1369      1714      1930
 -1      3818    3    0    1
 -2       316      1444       321      1557
 -1      3819    3    0    1
 -2      1444      1819       321      1557
 -1      3820    3    0    1
 -2       320       321      1819      1557
 -1      3821    3    0    1
 -2       320       316       321      1557
 -1      3822    3    0    1
 -2       511      1412       804       151
 -1      3823    3    0    1
 -2      1385      1684      1714      1929
 -1      3824    3    0    1
 -2      1464      1798      1797      1706
 -1      3825    3    0    1
 -2      1677      1797      1799      1706
 -1      3826    3    0    1
 -2      1355      1700       824       539
 -1      3827    3    0    1
 -2       295      1639       289       290
 -1      3828    3    0    1
 -2       855       859      1618       860
 -1      3829    3    0    1
 -2      1700       553       156       546
 -1      3830    3    0    1
 -2       296       291      1639       295
 -1      3831    3    0    1
 -2       844      1644       160       159
 -1      3832    3    0    1
 -2      1412       809       804       152
 -1      3833    3    0    1
 -2      1569      1095      1088      1976
 -1      3834    3    0    1
 -2       250       249      1932      1998
 -1      3835    3    0    1
 -2       294       300      1612       295
 -1      3836    3    0    1
 -2      1612       300       296       295
 -1      3837    3    0    1
 -2      1824      1612       296       295
 -1      3838    3    0    1
 -2      1612      1824      1639       295
 -1      3839    3    0    1
 -2      1639      1824       296       295
 -1      3840    3    0    1
 -2       279        49       280      1949
 -1      3841    3    0    1
 -2      1801       280       281      1995
 -1      3842    3    0    1
 -2      1639       290       285       284
 -1      3843    3    0    1
 -2      1906       252       251      2001
 -1      3844    3    0    1
 -2      1385       154       153       532
 -1      3845    3    0    1
 -2       516       517      1369       509
 -1      3846    3    0    1
 -2      1385      1684      1929      1355
 -1      3847    3    0    1
 -2       262      1989      1990      2078
 -1      3848    3    0    1
 -2      1369       517      1714      1930
 -1      3849    3    0    1
 -2      1949        49       280      1995
 -1      3850    3    0    1
 -2       514      1617      1590      1826
 -1      3851    3    0    1
 -2        48        49       279      1949
 -1      3852    3    0    1
 -2       283      1020        52      1981
 -1      3853    3    0    1
 -2      1946       799        39      1994
 -1      3854    3    0    1
 -2       820       815      1353      1929
 -1      3855    3    0    1
 -2      1369       517       510       509
 -1      3856    3    0    1
 -2        49       284        50       281
 -1      3857    3    0    1
 -2      1821      1487      1513      1819
 -1      3858    3    0    1
 -2       289      1493       283       284
 -1      3859    3    0    1
 -2        49       285       284      1995
 -1      3860    3    0    1
 -2       281        49       284      1995
 -1      3861    3    0    1
 -2      1644       845      1615      1922
 -1      3862    3    0    1
 -2      1925      1700      1669      1926
 -1      3863    3    0    1
 -2      1669       825       830       831
 -1      3864    3    0    1
 -2      1495      1642       842       837
 -1      3865    3    0    1
 -2      1428      1932      1930      1383
 -1      3866    3    0    1
 -2       810       805       811      1383
 -1      3867    3    0    1
 -2      1927      1684      1562      1924
 -1      3868    3    0    1
 -2      1355      1684      1929      1926
 -1      3869    3    0    1
 -2      1576      1633      1919      1921
 -1      3870    3    0    1
 -2      1524      1899      1495       837
 -1      3871    3    0    1
 -2       832      1669       837       836
 -1      3872    3    0    1
 -2      1355       824       155       539
 -1      3873    3    0    1
 -2      1671       553       834      1700
 -1      3874    3    0    1
 -2      1642       835      1925      1671
 -1      3875    3    0    1
 -2       834       835       840      1671
 -1      3876    3    0    1
 -2       821       820      1353      1698
 -1      3877    3    0    1
 -2       840       839       834      1671
 -1      3878    3    0    1
 -2      1377      1539      1044      1037
 -1      3879    3    0    1
 -2      1671       834       835      1700
 -1      3880    3    0    1
 -2      1671       835      1925      1700
 -1      3881    3    0    1
 -2      1700       834       835       829
 -1      3882    3    0    1
 -2      1644      1921      1615       850
 -1      3883    3    0    1
 -2        47        48       278      1979
 -1      3884    3    0    1
 -2        51       282       283      1981
 -1      3885    3    0    1
 -2       830      1700       835       829
 -1      3886    3    0    1
 -2      1930      1385      1714      1929
 -1      3887    3    0    1
 -2      1688      1925      1642      1899
 -1      3888    3    0    1
 -2       822      1353      1903      1698
 -1      3889    3    0    1
 -2      1669       830       835       831
 -1      3890    3    0    1
 -2      1899      1642      1495       837
 -1      3891    3    0    1
 -2       819       820       824      1355
 -1      3892    3    0    1
 -2      1385       820       819      1355
 -1      3893    3    0    1
 -2       832      1524       838       837
 -1      3894    3    0    1
 -2       820      1355      1929      1698
 -1      3895    3    0    1
 -2      1045      1044      1037      1377
 -1      3896    3    0    1
 -2       819       824       155      1355
 -1      3897    3    0    1
 -2       820       825       824      1355
 -1      3898    3    0    1
 -2      1714       530      1684       531
 -1      3899    3    0    1
 -2      2047       248       253      2049
 -1      3900    3    0    1
 -2       815       820      1353       821
 -1      3901    3    0    1
 -2       202      1042      1553       823
 -1      3902    3    0    1
 -2       821      1353       816       817
 -1      3903    3    0    1
 -2       283      2058       282      1980
 -1      3904    3    0    1
 -2       818      1581       823       817
 -1      3905    3    0    1
 -2       817      1353      1903       822
 -1      3906    3    0    1
 -2      1412      1385       810       809
 -1      3907    3    0    1
 -2      1401      1353      1903      1904
 -1      3908    3    0    1
 -2       250        37      1998      2016
 -1      3909    3    0    1
 -2       500      2057      1997      1939
 -1      3910    3    0    1
 -2        37        38       250      1998
 -1      3911    3    0    1
 -2       806       800       801      1383
 -1      3912    3    0    1
 -2      1931       260       259      1986
 -1      3913    3    0    1
 -2      1015      1016      1567      1989
 -1      3914    3    0    1
 -2       803       802        36      2001
 -1      3915    3    0    1
 -2      1998      2047      1932       800
 -1      3916    3    0    1
 -2       261       266       267      1989
 -1      3917    3    0    1
 -2       500        31       501      1997
 -1      3918    3    0    1
 -2       280      1801      1949      1995
 -1      3919    3    0    1
 -2       200       818       813      1581
 -1      3920    3    0    1
 -2      1946        38       800      1998
 -1      3921    3    0    1
 -2        37       801       800      1998
 -1      3922    3    0    1
 -2       212      1413       211      1105
 -1      3923    3    0    1
 -2      1629      1505       565       558
 -1      3924    3    0    1
 -2      1946       248       249      2047
 -1      3925    3    0    1
 -2      1523      1401      1901      1902
 -1      3926    3    0    1
 -2       524       530      1714       531
 -1      3927    3    0    1
 -2       271       270       275      2003
 -1      3928    3    0    1
 -2      1800      1361      1802      1405
 -1      3929    3    0    1
 -2      1905      1802      1552      2004
 -1      3930    3    0    1
 -2      1929      1927      1714      1401
 -1      3931    3    0    1
 -2       815      1353      1385       810
 -1      3932    3    0    1
 -2       805      1412       810       809
 -1      3933    3    0    1
 -2       800      1412       799      2047
 -1      3934    3    0    1
 -2        28       248        39      1994
 -1      3935    3    0    1
 -2       809       805      1412       804
 -1      3936    3    0    1
 -2      1412       805       800       799
 -1      3937    3    0    1
 -2      1369      1714       516      1933
 -1      3938    3    0    1
 -2        39       799       150      1994
 -1      3939    3    0    1
 -2       799       511       150       504
 -1      3940    3    0    1
 -2       504       799       511      2047
 -1      3941    3    0    1
 -2       511       804       799       151
 -1      3942    3    0    1
 -2      2047       503       504      2049
 -1      3943    3    0    1
 -2       538      1355      1684       531
 -1      3944    3    0    1
 -2       152      1385       153       518
 -1      3945    3    0    1
 -2       152      1412       809       518
 -1      3946    3    0    1
 -2       809      1385       152       518
 -1      3947    3    0    1
 -2       151       511      1412       518
 -1      3948    3    0    1
 -2      1385       524      1714       531
 -1      3949    3    0    1
 -2        65      1668      1118      1111
 -1      3950    3    0    1
 -2      1385       809       152       153
 -1      3951    3    0    1
 -2      1493      1027       283      2058
 -1      3952    3    0    1
 -2       276       281       282      1801
 -1      3953    3    0    1
 -2      1405      1032      1361      1025
 -1      3954    3    0    1
 -2       267       272        43      1017
 -1      3955    3    0    1
 -2       153      1385       809       814
 -1      3956    3    0    1
 -2       825      1700       830       829
 -1      3957    3    0    1
 -2      1700       825       824       829
 -1      3958    3    0    1
 -2      1552      1931      1428      1905
 -1      3959    3    0    1
 -2      1405      1552      1902      1905
 -1      3960    3    0    1
 -2       265      1802      1905      2004
 -1      3961    3    0    1
 -2      1385       815       810       814
 -1      3962    3    0    1
 -2       809      1385       810       814
 -1      3963    3    0    1
 -2       820      1385       819       814
 -1      3964    3    0    1
 -2      1031      1405      1023      1024
 -1      3965    3    0    1
 -2      1385       820       815       814
 -1      3966    3    0    1
 -2      1901      1401      1539      1902
 -1      3967    3    0    1
 -2      1930      1353      1385      1929
 -1      3968    3    0    1
 -2       259       260       255      1986
 -1      3969    3    0    1
 -2      1949       285        49      1995
 -1      3970    3    0    1
 -2      1428      1930      1928      1401
 -1      3971    3    0    1
 -2      1353       815      1385      1929
 -1      3972    3    0    1
 -2       820      1385       815      1929
 -1      3973    3    0    1
 -2       500      2057      1575      2051
 -1      3974    3    0    1
 -2       552       553       559      2008
 -1      3975    3    0    1
 -2       156      1700       829       157
 -1      3976    3    0    1
 -2       829      1700       834       157
 -1      3977    3    0    1
 -2       154      1355       539       532
 -1      3978    3    0    1
 -2       307      1471      1501       526
 -1      3979    3    0    1
 -2      1790      1075      1623      1082
 -1      3980    3    0    1
 -2      1790      1075      1382      1623
 -1      3981    3    0    1
 -2       819      1385      1355       532
 -1      3982    3    0    1
 -2      1355       154       819       532
 -1      3983    3    0    1
 -2       822       821      1353      1698
 -1      3984    3    0    1
 -2       523       524      1714       517
 -1      3985    3    0    1
 -2      1352      1075      1382      1790
 -1      3986    3    0    1
 -2      1352      1075      1790      1082
 -1      3987    3    0    1
 -2       500      2057      1939      1575
 -1      3988    3    0    1
 -2      1352      1075      1083      1382
 -1      3989    3    0    1
 -2      1793      1061      1068      2076
 -1      3990    3    0    1
 -2      1828      1552      1598      1802
 -1      3991    3    0    1
 -2      1824      1598      1571      1798
 -1      3992    3    0    1
 -2      1552      1428      1902      1905
 -1      3993    3    0    1
 -2      1037      1038      1045      1377
 -1      3994    3    0    1
 -2      1025      1033      1361      1026
 -1      3995    3    0    1
 -2      1800      1802      1552      1405
 -1      3996    3    0    1
 -2      1598      1639      1801      1798
 -1      3997    3    0    1
 -2      1801      1802      1361      1985
 -1      3998    3    0    1
 -2      1985      1802       271      2003
 -1      3999    3    0    1
 -2       271       265       270      1802
 -1      4000    3    0    1
 -2      1828       270       265      1802
 -1      4001    3    0    1
 -2      1931       265      1905      2004
 -1      4002    3    0    1
 -2       268      1997      2051      2057
 -1      4003    3    0    1
 -2       276       277       272      1985
 -1      4004    3    0    1
 -2      1802      1361      1598      1801
 -1      4005    3    0    1
 -2       264       260       259      1931
 -1      4006    3    0    1
 -2      1513      1820      1822      1542
 -1      4007    3    0    1
 -2      1598      1552      1826      1800
 -1      4008    3    0    1
 -2      1542      1513      1820      1794
 -1      4009    3    0    1
 -2      1480      1692      1897      1898
 -1      4010    3    0    1
 -2      1901      1044      1722      1377
 -1      4011    3    0    1
 -2      1799      1046      1677      1706
 -1      4012    3    0    1
 -2      1041      1033      1034      2010
 -1      4013    3    0    1
 -2      1922      1602      1644       566
 -1      4014    3    0    1
 -2      1612      1823      1585      1797
 -1      4015    3    0    1
 -2      1823      1612      1571      1797
 -1      4016    3    0    1
 -2      1585      1437       304      1797
 -1      4017    3    0    1
 -2      1585       304      1612      1797
 -1      4018    3    0    1
 -2       304       299      1612      1797
 -1      4019    3    0    1
 -2       304      1464       299      1797
 -1      4020    3    0    1
 -2       299      1464      1612      1797
 -1      4021    3    0    1
 -2      1797      1823      1585      1542
 -1      4022    3    0    1
 -2      1585      1823      1820      1542
 -1      4023    3    0    1
 -2      1820      1823      1517      1542
 -1      4024    3    0    1
 -2      1825      1517      1823      1542
 -1      4025    3    0    1
 -2      1822      1517      1825      1542
 -1      4026    3    0    1
 -2      1820      1517      1822      1542
 -1      4027    3    0    1
 -2      1523      1571      1826      1800
 -1      4028    3    0    1
 -2      1598      1826      1571      1800
 -1      4029    3    0    1
 -2      1798      1598      1571      1800
 -1      4030    3    0    1
 -2      1798      1361      1598      1800
 -1      4031    3    0    1
 -2       511       510      1412      2021
 -1      4032    3    0    1
 -2      1799      1797      1571      1706
 -1      4033    3    0    1
 -2      1930       510      1412      1369
 -1      4034    3    0    1
 -2      1928      1931      1428      1552
 -1      4035    3    0    1
 -2      1793      1382      1410      2076
 -1      4036    3    0    1
 -2      1417      1431      1458       562
 -1      4037    3    0    1
 -2      1794      1054      1437      1677
 -1      4038    3    0    1
 -2      1822      1513      1542      1796
 -1      4039    3    0    1
 -2      1528       319       320      1793
 -1      4040    3    0    1
 -2      1797      1464      1706      1047
 -1      4041    3    0    1
 -2      1714       516       523       517
 -1      4042    3    0    1
 -2      1513      1795      1793      1650
 -1      4043    3    0    1
 -2      1894      1663      1792      1438
 -1      4044    3    0    1
 -2      1922      1925      1642      1688
 -1      4045    3    0    1
 -2      1040      1033      1706      1039
 -1      4046    3    0    1
 -2      1513      1822      1465      1796
 -1      4047    3    0    1
 -2      1650      1054      1794      1677
 -1      4048    3    0    1
 -2      1795      1513      1465      1796
 -1      4049    3    0    1
 -2      1437      1797      1794      1677
 -1      4050    3    0    1
 -2      1534      1822      1562      1924
 -1      4051    3    0    1
 -2      1618       162       161       581
 -1      4052    3    0    1
 -2      1458      1487      1821      1819
 -1      4053    3    0    1
 -2      1799      1800      1523      1377
 -1      4054    3    0    1
 -2      1700       156       829       546
 -1      4055    3    0    1
 -2      1054      1650      1061      1053
 -1      4056    3    0    1
 -2      1061      1410      1062      2076
 -1      4057    3    0    1
 -2       834       158       157      1671
 -1      4058    3    0    1
 -2      1076      1068      1069      2076
 -1      4059    3    0    1
 -2      1792      1596      1790      1623
 -1      4060    3    0    1
 -2      1557      1820      1513      1794
 -1      4061    3    0    1
 -2      1410      1437       309      1794
 -1      4062    3    0    1
 -2       309      1410      1794      2007
 -1      4063    3    0    1
 -2      1794      1557       309      2007
 -1      4064    3    0    1
 -2      1557       314       309      2007
 -1      4065    3    0    1
 -2      1793      1557      1513      1794
 -1      4066    3    0    1
 -2      1793      1410      1557      1794
 -1      4067    3    0    1
 -2      1794      1793      1410      1650
 -1      4068    3    0    1
 -2      1410      1054      1794      1650
 -1      4069    3    0    1
 -2      1046      1377      1706      1799
 -1      4070    3    0    1
 -2       559      1629       552      2008
 -1      4071    3    0    1
 -2      1542      1794      1677      1796
 -1      4072    3    0    1
 -2      1494      1542      1799      1796
 -1      4073    3    0    1
 -2      1894      1636      1663      1982
 -1      4074    3    0    1
 -2      1794      1513      1650      1796
 -1      4075    3    0    1
 -2      1677      1796      1053      1722
 -1      4076    3    0    1
 -2       572       573      1602       566
 -1      4077    3    0    1
 -2      1067      1060      1650      1692
 -1      4078    3    0    1
 -2      1677      1799      1796      1722
 -1      4079    3    0    1
 -2      1465      1897      1692      1898
 -1      4080    3    0    1
 -2      1401      1927      1523      1901
 -1      4081    3    0    1
 -2      1663      1074      1623      1067
 -1      4082    3    0    1
 -2      1068      1060      1650      1067
 -1      4083    3    0    1
 -2      1925      1656      1629      2008
 -1      4084    3    0    1
 -2       584      1814      1404      1448
 -1      4085    3    0    1
 -2      1797      1798      1571      1706
 -1      4086    3    0    1
 -2      1081      1623      1663      1074
 -1      4087    3    0    1
 -2       157       560       553      1671
 -1      4088    3    0    1
 -2      1700      1656      1925      2008
 -1      4089    3    0    1
 -2      1596      1082      1790      1623
 -1      4090    3    0    1
 -2      1061      1060      1650      1068
 -1      4091    3    0    1
 -2      1081      1075      1082      1623
 -1      4092    3    0    1
 -2      1552      1928      1523      1902
 -1      4093    3    0    1
 -2      1410      1069      1062      2076
 -1      4094    3    0    1
 -2      1061      1062      1068      2076
 -1      4095    3    0    1
 -2      1069      1068      1062      2076
 -1      4096    3    0    1
 -2      1714      1590      1928      1927
 -1      4097    3    0    1
 -2       545       538      1656       537
 -1      4098    3    0    1
 -2      1671      1642       840      1922
 -1      4099    3    0    1
 -2      1401      1929      1927      1373
 -1      4100    3    0    1
 -2      1410      1382      1069      2076
 -1      4101    3    0    1
 -2      1790      1382      1793      1623
 -1      4102    3    0    1
 -2      1793      1061      2076      1410
 -1      4103    3    0    1
 -2      1793      1483      1790      1623
 -1      4104    3    0    1
 -2      1793      1795      1483      1623
 -1      4105    3    0    1
 -2      1495      1071      1452      2006
 -1      4106    3    0    1
 -2      1353      1929      1903      1698
 -1      4107    3    0    1
 -2      1927      1714      1684      1929
 -1      4108    3    0    1
 -2      1623      1650      1795      1983
 -1      4109    3    0    1
 -2      1072      1066      1663      1065
 -1      4110    3    0    1
 -2      1650      1067      1692      1983
 -1      4111    3    0    1
 -2      1799      1494      1796      1722
 -1      4112    3    0    1
 -2      1480      1065      1058      1057
 -1      4113    3    0    1
 -2      1924      1684      1562       537
 -1      4114    3    0    1
 -2      1998      2047       249      1932
 -1      4115    3    0    1
 -2      1926      1656      1684      1924
 -1      4116    3    0    1
 -2      1067      1663      1074      1066
 -1      4117    3    0    1
 -2      1663      1073      1074      1066
 -1      4118    3    0    1
 -2      1480      1897      1718      1898
 -1      4119    3    0    1
 -2      1901      1903      1373      1510
 -1      4120    3    0    1
 -2       564       570      1475       571
 -1      4121    3    0    1
 -2      1796      1650      1677      1053
 -1      4122    3    0    1
 -2      1505       558       557       564
 -1      4123    3    0    1
 -2      1629      1656      1923      2024
 -1      4124    3    0    1
 -2       206       205      1070      1495
 -1      4125    3    0    1
 -2       566      1629      1602       565
 -1      4126    3    0    1
 -2       580       586       579      1576
 -1      4127    3    0    1
 -2      1930       510      1369       517
 -1      4128    3    0    1
 -2       502      2054      1931      1939
 -1      4129    3    0    1
 -2      1706      1677      1797      1047
 -1      4130    3    0    1
 -2      1677      1437      1797      1047
 -1      4131    3    0    1
 -2       540      1487      2060      1444
 -1      4132    3    0    1
 -2      1437      1055      1048      1047
 -1      4133    3    0    1
 -2      1054      1055      1437      1047
 -1      4134    3    0    1
 -2      1458      1483      1821      1818
 -1      4135    3    0    1
 -2      1924      1656      1684       537
 -1      4136    3    0    1
 -2      1390       337       332       336
 -1      4137    3    0    1
 -2      1032      1706      1377      2009
 -1      4138    3    0    1
 -2      1361      1706      1033      1032
 -1      4139    3    0    1
 -2      1033      1026      1027      2010
 -1      4140    3    0    1
 -2      1361      1493      1026      2010
 -1      4141    3    0    1
 -2       558      1505       557       550
 -1      4142    3    0    1
 -2      1798      1493      1361      2010
 -1      4143    3    0    1
 -2      1033      1798      1361      2010
 -1      4144    3    0    1
 -2      1026      1033      1361      2010
 -1      4145    3    0    1
 -2      1798      1464      1493      2010
 -1      4146    3    0    1
 -2      1493      1464      1034      2010
 -1      4147    3    0    1
 -2      1047      1041      1464      1040
 -1      4148    3    0    1
 -2      1047      1464      1706      1040
 -1      4149    3    0    1
 -2       551      1505       558       550
 -1      4150    3    0    1
 -2      1718      1656      1926      1924
 -1      4151    3    0    1
 -2      1517       534      1820      1487
 -1      4152    3    0    1
 -2       551       550       543      1534
 -1      4153    3    0    1
 -2       537      1562      1534       536
 -1      4154    3    0    1
 -2      1562      1534      1924       537
 -1      4155    3    0    1
 -2      1038      1046      1045      1377
 -1      4156    3    0    1
 -2       543       551      1534       544
 -1      4157    3    0    1
 -2      1031      1405      1032      1377
 -1      4158    3    0    1
 -2      1590      1523      1928      1927
 -1      4159    3    0    1
 -2      1494      1562      1822      1924
 -1      4160    3    0    1
 -2      1401      1523      1928      1902
 -1      4161    3    0    1
 -2      1034      1027      1493      2010
 -1      4162    3    0    1
 -2      1034      1033      1027      2010
 -1      4163    3    0    1
 -2       296      1530       291       297
 -1      4164    3    0    1
 -2       251       255      1906       250
 -1      4165    3    0    1
 -2       529      1562       528      1590
 -1      4166    3    0    1
 -2      1656      1534       551       544
 -1      4167    3    0    1
 -2      1040      1046      1706      1047
 -1      4168    3    0    1
 -2      1815       576       568      1360
 -1      4169    3    0    1
 -2      1361      1025      1018      2018
 -1      4170    3    0    1
 -2      1930      1385      1412      2021
 -1      4171    3    0    1
 -2       277       282      1020      2058
 -1      4172    3    0    1
 -2        40       282      1020       277
 -1      4173    3    0    1
 -2       277       276      1801      1985
 -1      4174    3    0    1
 -2      1946       800       799      2047
 -1      4175    3    0    1
 -2       800      1932      1412      2047
 -1      4176    3    0    1
 -2      1994       799       504      2047
 -1      4177    3    0    1
 -2      1033      1361      1032      1025
 -1      4178    3    0    1
 -2      1437      1464      1047      1048
 -1      4179    3    0    1
 -2      1932      1931      1369      2013
 -1      4180    3    0    1
 -2      1986      1931      1932      2013
 -1      4181    3    0    1
 -2      1024      1405      1017      2018
 -1      4182    3    0    1
 -2        30       263       258      2054
 -1      4183    3    0    1
 -2       824      1700       829       546
 -1      4184    3    0    1
 -2      1025      1361      1018      1019
 -1      4185    3    0    1
 -2      1546       528      1517      1825
 -1      4186    3    0    1
 -2       537      1684       530       531
 -1      4187    3    0    1
 -2       251      1906      2001      2016
 -1      4188    3    0    1
 -2      1369       510       503       509
 -1      4189    3    0    1
 -2       503       502       253      2013
 -1      4190    3    0    1
 -2      1017       267       272      2018
 -1      4191    3    0    1
 -2      1939      1575      2057      1828
 -1      4192    3    0    1
 -2      1906       256       257      2078
 -1      4193    3    0    1
 -2      1385      1684      1355       531
 -1      4194    3    0    1
 -2      1542      1825      1494      1799
 -1      4195    3    0    1
 -2       265       261      1905       266
 -1      4196    3    0    1
 -2       502        30       253       258
 -1      4197    3    0    1
 -2       799      1412       511      2047
 -1      4198    3    0    1
 -2      1027      1019      1020      2058
 -1      4199    3    0    1
 -2        55      1464      1048      1041
 -1      4200    3    0    1
 -2      1019      1361      1018      1985
 -1      4201    3    0    1
 -2      1026      1027      1493      2058
 -1      4202    3    0    1
 -2      1026      1019      1027      2058
 -1      4203    3    0    1
 -2      1026      1361      1019      2058
 -1      4204    3    0    1
 -2      1020      1019       277      2058
 -1      4205    3    0    1
 -2      1018       272       277      1985
 -1      4206    3    0    1
 -2      1024      1025      1405      2018
 -1      4207    3    0    1
 -2      1369      1931       502      2013
 -1      4208    3    0    1
 -2      1352      1075      1082      1083
 -1      4209    3    0    1
 -2       510       503       511      2047
 -1      4210    3    0    1
 -2      1369       502       503      2013
 -1      4211    3    0    1
 -2       503       504       511      2047
 -1      4212    3    0    1
 -2       103       519      1501       512
 -1      4213    3    0    1
 -2      1628      1601       734      1867
 -1      4214    3    0    1
 -2       505       102      1530       512
 -1      4215    3    0    1
 -2       507       514       513      1575
 -1      4216    3    0    1
 -2      1792      1795      1483      1438
 -1      4217    3    0    1
 -2      1534      1822      1487      1948
 -1      4218    3    0    1
 -2       529       530      1590       522
 -1      4219    3    0    1
 -2       530      1562       529      1590
 -1      4220    3    0    1
 -2       251        37       250      2016
 -1      4221    3    0    1
 -2      1114      1370      1583      1889
 -1      4222    3    0    1
 -2      1571      1800      1799      1706
 -1      4223    3    0    1
 -2        49       281       280      1995
 -1      4224    3    0    1
 -2      1905      1802       266      2018
 -1      4225    3    0    1
 -2       269       264       268      1828
 -1      4226    3    0    1
 -2       269       270       265      1828
 -1      4227    3    0    1
 -2      1985      1801      1802      2003
 -1      4228    3    0    1
 -2      1428      1906      1567      1905
 -1      4229    3    0    1
 -2      1904      1428      1930      1383
 -1      4230    3    0    1
 -2      1018       277      1019      1985
 -1      4231    3    0    1
 -2      1928      1523      1826      1552
 -1      4232    3    0    1
 -2        41       277      1018        42
 -1      4233    3    0    1
 -2      1826      1617      1928      1552
 -1      4234    3    0    1
 -2       265       264       269      1828
 -1      4235    3    0    1
 -2       723      1371      1414       730
 -1      4236    3    0    1
 -2      1542      1571      1825      1799
 -1      4237    3    0    1
 -2      1385      1412       810      1930
 -1      4238    3    0    1
 -2       506       500       507      1575
 -1      4239    3    0    1
 -2       514       507      1617      1575
 -1      4240    3    0    1
 -2       530      1684      1562      1927
 -1      4241    3    0    1
 -2      1900      1373      1926      1698
 -1      4242    3    0    1
 -2      1714      1930      1929      1401
 -1      4243    3    0    1
 -2       810       811      1353      1930
 -1      4244    3    0    1
 -2      1931      1369      1928      1428
 -1      4245    3    0    1
 -2       507       500       501      1939
 -1      4246    3    0    1
 -2      1930      1928      1369      1428
 -1      4247    3    0    1
 -2      1931      1932      1369      1428
 -1      4248    3    0    1
 -2      1932      1412      1369      1930
 -1      4249    3    0    1
 -2      1590       530      1562      1927
 -1      4250    3    0    1
 -2      1495      1425      1452      1078
 -1      4251    3    0    1
 -2      2056      1236      1362      1605
 -1      4252    3    0    1
 -2      1371       723      1414      1952
 -1      4253    3    0    1
 -2       546      1926      1656       538
 -1      4254    3    0    1
 -2      1926      1669      1718      1900
 -1      4255    3    0    1
 -2        36       802       801      2016
 -1      4256    3    0    1
 -2       802       806       801      1383
 -1      4257    3    0    1
 -2      1412      1932       805      1383
 -1      4258    3    0    1
 -2      1385      1930      1714      2021
 -1      4259    3    0    1
 -2       517       510       511      2021
 -1      4260    3    0    1
 -2      1656      1684       538      1926
 -1      4261    3    0    1
 -2      1355       538      1684      1926
 -1      4262    3    0    1
 -2      1903      1373      1900      1698
 -1      4263    3    0    1
 -2       825      1669       830      2022
 -1      4264    3    0    1
 -2      1926      1700      1669      2022
 -1      4265    3    0    1
 -2      1929      1926      1373      1698
 -1      4266    3    0    1
 -2      1373      1718      1924      1898
 -1      4267    3    0    1
 -2      1904      1353       811      1383
 -1      4268    3    0    1
 -2      1929      1353      1903      1401
 -1      4269    3    0    1
 -2      1928      1428      1401      1902
 -1      4270    3    0    1
 -2       249       250        38      1998
 -1      4271    3    0    1
 -2      1539      1567      1902      1904
 -1      4272    3    0    1
 -2      1021      1029      1028      1608
 -1      4273    3    0    1
 -2      1428      1906      1932      1383
 -1      4274    3    0    1
 -2       252      1906       257      1984
 -1      4275    3    0    1
 -2      1452      1495      1078      1071
 -1      4276    3    0    1
 -2       254       259       255      1986
 -1      4277    3    0    1
 -2      1928      1714      1927      1401
 -1      4278    3    0    1
 -2      1898      1373      1900      1510
 -1      4279    3    0    1
 -2      1722      1046      1799      1377
 -1      4280    3    0    1
 -2      1505      1458      1821      1818
 -1      4281    3    0    1
 -2      1925      1656      1718      1923
 -1      4282    3    0    1
 -2      1924      1718      1656      1923
 -1      4283    3    0    1
 -2      1534      1656       551      2024
 -1      4284    3    0    1
 -2      1444      1820       316       311
 -1      4285    3    0    1
 -2      1629       551      1656      2024
 -1      4286    3    0    1
 -2       821       826       820      1698
 -1      4287    3    0    1
 -2      1929      1355      1926      1698
 -1      4288    3    0    1
 -2       822       826       821      1698
 -1      4289    3    0    1
 -2       538      1355       539      1926
 -1      4290    3    0    1
 -2       539      1355      1700      1926
 -1      4291    3    0    1
 -2      1656      1925      1718      1926
 -1      4292    3    0    1
 -2      1925      1669      1718      1926
 -1      4293    3    0    1
 -2       551       552       558      1629
 -1      4294    3    0    1
 -2       551      1656       552      1629
 -1      4295    3    0    1
 -2      1925      1629      1671      2008
 -1      4296    3    0    1
 -2      1602      1921      1644      2037
 -1      4297    3    0    1
 -2       559      1671      1629      2008
 -1      4298    3    0    1
 -2      1656       545       537       544
 -1      4299    3    0    1
 -2       550       551      1505      1534
 -1      4300    3    0    1
 -2      1794      1797      1542      1677
 -1      4301    3    0    1
 -2      1615      1466      1895      1896
 -1      4302    3    0    1
 -2      1494      1927      1924      1373
 -1      4303    3    0    1
 -2      1373      1903      1900      1510
 -1      4304    3    0    1
 -2       849      1644       160       844
 -1      4305    3    0    1
 -2       566       573      1602      2037
 -1      4306    3    0    1
 -2      1438      1465      1923      1897
 -1      4307    3    0    1
 -2      1815       576      1404       569
 -1      4308    3    0    1
 -2      1082      1089      1088      1596
 -1      4309    3    0    1
 -2      1796      1465      1692      1898
 -1      4310    3    0    1
 -2      1471      1823       306      1501
 -1      4311    3    0    1
 -2      1822      1534      1487      1821
 -1      4312    3    0    1
 -2      1465      1923      1534      1821
 -1      4313    3    0    1
 -2      1898      1480      1692      1992
 -1      4314    3    0    1
 -2      1053      1692      1650      1060
 -1      4315    3    0    1
 -2      1660      1895      1425      1896
 -1      4316    3    0    1
 -2      1465      1534      1822      1821
 -1      4317    3    0    1
 -2      1923      1629      1505      1920
 -1      4318    3    0    1
 -2      1923      1438      1897      1688
 -1      4319    3    0    1
 -2      1920      1923      1629      1688
 -1      4320    3    0    1
 -2      1920      1629      1602      1922
 -1      4321    3    0    1
 -2      1784      1555      1699      1886
 -1      4322    3    0    1
 -2      1429      1814      1788      1384
 -1      4323    3    0    1
 -2      1915      1699      1813      1354
 -1      4324    3    0    1
 -2      1633      1919      1916      1576
 -1      4325    3    0    1
 -2       580       586      1576       587
 -1      4326    3    0    1
 -2      1915      1606      1889      1354
 -1      4327    3    0    1
 -2      1813      1810      1394      1721
 -1      4328    3    0    1
 -2      1404      1812      1814      1376
 -1      4329    3    0    1
 -2      1102      1103      1110      1541
 -1      4330    3    0    1
 -2      1429      1402      1812      1786
 -1      4331    3    0    1
 -2      1535       874       609       616
 -1      4332    3    0    1
 -2      1365       621      1488       614
 -1      4333    3    0    1
 -2      1244      2056      1707      1243
 -1      4334    3    0    1
 -2       573      1602      1576       572
 -1      4335    3    0    1
 -2       849      1618       581       574
 -1      4336    3    0    1
 -2      1922      1629      1602       566
 -1      4337    3    0    1
 -2      1644       849       160       574
 -1      4338    3    0    1
 -2       863       211       868      1413
 -1      4339    3    0    1
 -2      1591       865      1917      1560
 -1      4340    3    0    1
 -2       852      1466      1439      1895
 -1      4341    3    0    1
 -2      1618      1591       859       588
 -1      4342    3    0    1
 -2      1915      1917      1547      1518
 -1      4343    3    0    1
 -2       594      1591      1547      2028
 -1      4344    3    0    1
 -2      1532       872      1386      1891
 -1      4345    3    0    1
 -2      1098      1106      1105      1413
 -1      4346    3    0    1
 -2      1518      1917      1914      1579
 -1      4347    3    0    1
 -2      1518      1915      1917      1579
 -1      4348    3    0    1
 -2      1882      1521      1657      1885
 -1      4349    3    0    1
 -2      1550      1521      1913      1911
 -1      4350    3    0    1
 -2      1787      1889      1583      1354
 -1      4351    3    0    1
 -2      1894      1896      1452      1688
 -1      4352    3    0    1
 -2       865       870       864      1591
 -1      4353    3    0    1
 -2      1916      1633      1576      1918
 -1      4354    3    0    1
 -2      1576      1547      1916      1918
 -1      4355    3    0    1
 -2      1889      1891      1715      1370
 -1      4356    3    0    1
 -2      1588       851       852      1895
 -1      4357    3    0    1
 -2      1618       850      1644       849
 -1      4358    3    0    1
 -2       857       856       851      1588
 -1      4359    3    0    1
 -2      1919      1411      1660      1893
 -1      4360    3    0    1
 -2      1438      1894      1663      1897
 -1      4361    3    0    1
 -2      1894      1660      1896      1688
 -1      4362    3    0    1
 -2      1922      1629      1925      1688
 -1      4363    3    0    1
 -2      1079      1080      1086      1636
 -1      4364    3    0    1
 -2      1921      1644      1615      1922
 -1      4365    3    0    1
 -2      1921      1602      1644      1922
 -1      4366    3    0    1
 -2       852       848      1466       847
 -1      4367    3    0    1
 -2      1642       842      1896      1495
 -1      4368    3    0    1
 -2       845      1644      1615       850
 -1      4369    3    0    1
 -2       845      1615       851       850
 -1      4370    3    0    1
 -2       588       594       587      2028
 -1      4371    3    0    1
 -2       850      1644      1921      1618
 -1      4372    3    0    1
 -2       849      1618       850       855
 -1      4373    3    0    1
 -2      1439      1892      1588      1895
 -1      4374    3    0    1
 -2       850       845      1644       849
 -1      4375    3    0    1
 -2       588      1591       859       162
 -1      4376    3    0    1
 -2      1921       850      1618       855
 -1      4377    3    0    1
 -2       868       863      1413       867
 -1      4378    3    0    1
 -2       870       865      1917      1591
 -1      4379    3    0    1
 -2       882       886      1503       887
 -1      4380    3    0    1
 -2      1532      1888      1579      1891
 -1      4381    3    0    1
 -2       566      1602      1644      2037
 -1      4382    3    0    1
 -2      1532      1386      1888      1891
 -1      4383    3    0    1
 -2      1023      1989      1405      1567
 -1      4384    3    0    1
 -2      1560       870      1917      1532
 -1      4385    3    0    1
 -2       614       620      1365       621
 -1      4386    3    0    1
 -2       860      1618      1918      1591
 -1      4387    3    0    1
 -2       567      1922      1671      1644
 -1      4388    3    0    1
 -2      1591       870       864       869
 -1      4389    3    0    1
 -2      1917      1518      1914      1563
 -1      4390    3    0    1
 -2      2010      1706      1798      1464
 -1      4391    3    0    1
 -2      1563       870      1591       869
 -1      4392    3    0    1
 -2       874       875      1563       869
 -1      4393    3    0    1
 -2       864       865      1591       859
 -1      4394    3    0    1
 -2       163       864      1591       859
 -1      4395    3    0    1
 -2      1488      1913      1535      2031
 -1      4396    3    0    1
 -2       875       870      1563       869
 -1      4397    3    0    1
 -2      1444      1471       534      1820
 -1      4398    3    0    1
 -2      1917       870      1591      1563
 -1      4399    3    0    1
 -2      1591       594       595       588
 -1      4400    3    0    1
 -2      1535       166       879       616
 -1      4401    3    0    1
 -2      1084      1092      1091      1439
 -1      4402    3    0    1
 -2       875      1503      1914       876
 -1      4403    3    0    1
 -2      1905      1405      1802      2018
 -1      4404    3    0    1
 -2      1532       876       872       871
 -1      4405    3    0    1
 -2       865       870      1917      1560
 -1      4406    3    0    1
 -2       910       915      1422      1392
 -1      4407    3    0    1
 -2      1876      1874      1723      1408
 -1      4408    3    0    1
 -2      1422      1880      1378      1937
 -1      4409    3    0    1
 -2      1884      1887      1521      1473
 -1      4410    3    0    1
 -2      1913      1521      1887      1473
 -1      4411    3    0    1
 -2      1913      1506      1910      1473
 -1      4412    3    0    1
 -2       884       885      1535       879
 -1      4413    3    0    1
 -2       880      1535      1913       885
 -1      4414    3    0    1
 -2       880      1913      1503       885
 -1      4415    3    0    1
 -2      1535      1913      1503       880
 -1      4416    3    0    1
 -2      1685      1127      1120      1356
 -1      4417    3    0    1
 -2      1532      1579      1917      1891
 -1      4418    3    0    1
 -2       885       890      1473       886
 -1      4419    3    0    1
 -2      1579      1917      1914      1532
 -1      4420    3    0    1
 -2      1503       880       885       881
 -1      4421    3    0    1
 -2       885      1503       881       886
 -1      4422    3    0    1
 -2       892       896       891      1473
 -1      4423    3    0    1
 -2      1535       623      1506       884
 -1      4424    3    0    1
 -2       884      1535       623       167
 -1      4425    3    0    1
 -2      1600       661       662      1627
 -1      4426    3    0    1
 -2      1488       616       608       615
 -1      4427    3    0    1
 -2      1406      1880      1449      1937
 -1      4428    3    0    1
 -2      1810      1365      1809      1670
 -1      4429    3    0    1
 -2      1807       371       366      1389
 -1      4430    3    0    1
 -2      1909      1432      1406      1968
 -1      4431    3    0    1
 -2       172       665      1422       173
 -1      4432    3    0    1
 -2       909       658       171      1942
 -1      4433    3    0    1
 -2       899       894       900      1476
 -1      4434    3    0    1
 -2       636      1910      1459       629
 -1      4435    3    0    1
 -2      1497      1780      1468      1882
 -1      4436    3    0    1
 -2       895       900       894      1476
 -1      4437    3    0    1
 -2      1154      1161      1645      2036
 -1      4438    3    0    1
 -2      1459      1521      1910      1908
 -1      4439    3    0    1
 -2      1774      1609      1568      2046
 -1      4440    3    0    1
 -2      1462      1909      1880      1419
 -1      4441    3    0    1
 -2      1879      1422       915      1392
 -1      4442    3    0    1
 -2      1609      1635      1803      2033
 -1      4443    3    0    1
 -2      1723      1378       664      1879
 -1      4444    3    0    1
 -2      1910      1521      1913      1473
 -1      4445    3    0    1
 -2      1776       654      1582      1627
 -1      4446    3    0    1
 -2       657       658      1422      1937
 -1      4447    3    0    1
 -2      1907      1881      1589      1616
 -1      4448    3    0    1
 -2       632      1662       625       626
 -1      4449    3    0    1
 -2      1910      1459      1908      1432
 -1      4450    3    0    1
 -2      1521      1910      1913      1459
 -1      4451    3    0    1
 -2      1521      1491      1910      1908
 -1      4452    3    0    1
 -2      1645      1603      1854      1883
 -1      4453    3    0    1
 -2      1314       493      1570       488
 -1      4454    3    0    1
 -2      1883      1630      1672      2036
 -1      4455    3    0    1
 -2      1685      1888      1550      1887
 -1      4456    3    0    1
 -2      1911      1459      1488      2035
 -1      4457    3    0    1
 -2      1449      1476      1909      1968
 -1      4458    3    0    1
 -2       117       617       118      1622
 -1      4459    3    0    1
 -2      1710      1911      1459      1908
 -1      4460    3    0    1
 -2      1908      1710      1643      1806
 -1      4461    3    0    1
 -2      1370      1892      1398      1890
 -1      4462    3    0    1
 -2      1888      1356      1503      1887
 -1      4463    3    0    1
 -2      1914      1518      1579      1912
 -1      4464    3    0    1
 -2      1518      1914      1488      1912
 -1      4465    3    0    1
 -2      1579      1518      1915      1912
 -1      4466    3    0    1
 -2      1394      1915      1518      1912
 -1      4467    3    0    1
 -2      1884      1672      1701       897
 -1      4468    3    0    1
 -2      1908      1521      1491      1882
 -1      4469    3    0    1
 -2      1780      1468      1427      2074
 -1      4470    3    0    1
 -2      1911      1912      1550      1670
 -1      4471    3    0    1
 -2      1670      1911      1643      1885
 -1      4472    3    0    1
 -2      1911      1643      1521      1908
 -1      4473    3    0    1
 -2      1506      1913      1910      1459
 -1      4474    3    0    1
 -2       642      1432      1907      1681
 -1      4475    3    0    1
 -2      1432       642      1907      1406
 -1      4476    3    0    1
 -2      1715      1114      1555      1889
 -1      4477    3    0    1
 -2      1459       621      1488      2035
 -1      4478    3    0    1
 -2      1506       630       623       629
 -1      4479    3    0    1
 -2      1882      1497      1643      1885
 -1      4480    3    0    1
 -2       604       610      1649       611
 -1      4481    3    0    1
 -2      1911      1488      1912      1365
 -1      4482    3    0    1
 -2      1912      1394      1810      1365
 -1      4483    3    0    1
 -2       607      1488      1518       608
 -1      4484    3    0    1
 -2       608      1563       609      2045
 -1      4485    3    0    1
 -2       621      1365      1488      2035
 -1      4486    3    0    1
 -2      1535      1914      1488      2045
 -1      4487    3    0    1
 -2      1681       635      1432      2043
 -1      4488    3    0    1
 -2       376       377       382      1622
 -1      4489    3    0    1
 -2      1854      1603      1577      1852
 -1      4490    3    0    1
 -2      1373      1494      1927      1901
 -1      4491    3    0    1
 -2       381      1595       386      1704
 -1      4492    3    0    1
 -2      1927      1401      1373      1901
 -1      4493    3    0    1
 -2       639      1595       638       632
 -1      4494    3    0    1
 -2      1681      1907      1805      1616
 -1      4495    3    0    1
 -2       631       625      1622       624
 -1      4496    3    0    1
 -2      1884      1491      1630      1883
 -1      4497    3    0    1
 -2      1722      1053      1046      1052
 -1      4498    3    0    1
 -2      1722      1046      1045      1052
 -1      4499    3    0    1
 -2      1389       369      1781       370
 -1      4500    3    0    1
 -2       634       627      1710       633
 -1      4501    3    0    1
 -2      1044      1510      1050      1043
 -1      4502    3    0    1
 -2      1491      1909      1910      1432
 -1      4503    3    0    1
 -2       640       647      1609      1654
 -1      4504    3    0    1
 -2      1908      1491      1910      1432
 -1      4505    3    0    1
 -2      1491      1908      1907      1432
 -1      4506    3    0    1
 -2      1907      1909      1491      1432
 -1      4507    3    0    1
 -2      1805      1635      1803      1609
 -1      4508    3    0    1
 -2       644      1476       899      1449
 -1      4509    3    0    1
 -2      1525       675       682      1573
 -1      4510    3    0    1
 -2       649       642       650      1406
 -1      4511    3    0    1
 -2      1635      1595      1803      2033
 -1      4512    3    0    1
 -2      1710       627       626       633
 -1      4513    3    0    1
 -2      1785      1443      1668       349
 -1      4514    3    0    1
 -2       639      1635       640      1609
 -1      4515    3    0    1
 -2      1803      1609      1774      1634
 -1      4516    3    0    1
 -2      1609       654      1776      1654
 -1      4517    3    0    1
 -2      1775       661      1600      1627
 -1      4518    3    0    1
 -2      1459      1710      1908      2043
 -1      4519    3    0    1
 -2      1432      1908      1907      1681
 -1      4520    3    0    1
 -2       627       628       635      2043
 -1      4521    3    0    1
 -2      1803      1661      1804      1635
 -1      4522    3    0    1
 -2       646       652       645      1568
 -1      4523    3    0    1
 -2       621      1365      1710       620
 -1      4524    3    0    1
 -2      1582      1776      1774      1609
 -1      4525    3    0    1
 -2      1356      1715      1120      1685
 -1      4526    3    0    1
 -2       629      1459       635       628
 -1      4527    3    0    1
 -2      1719      1808      1807      1691
 -1      4528    3    0    1
 -2      1568      1803      1595      2033
 -1      4529    3    0    1
 -2       616      1488       608      2045
 -1      4530    3    0    1
 -2      1609      1805       640      1654
 -1      4531    3    0    1
 -2      1459       636       629       635
 -1      4532    3    0    1
 -2      1476      1910      1432       636
 -1      4533    3    0    1
 -2      1367      1724      1396      1274
 -1      4534    3    0    1
 -2       904       899      1449      2077
 -1      4535    3    0    1
 -2       608      1518      1563      2045
 -1      4536    3    0    1
 -2      1563      1518      1914      2045
 -1      4537    3    0    1
 -2       622       616       623      2031
 -1      4538    3    0    1
 -2       616      1535       623      2031
 -1      4539    3    0    1
 -2       879       166       874       616
 -1      4540    3    0    1
 -2      1535       879       874       616
 -1      4541    3    0    1
 -2       874      1563      1535       609
 -1      4542    3    0    1
 -2       165      1563       874       609
 -1      4543    3    0    1
 -2      1710       621       620       628
 -1      4544    3    0    1
 -2       620       627      1710       628
 -1      4545    3    0    1
 -2       634      1681      1710      2043
 -1      4546    3    0    1
 -2       622       621      1459       629
 -1      4547    3    0    1
 -2      1909      1907      1491      1462
 -1      4548    3    0    1
 -2       169      1476       170       644
 -1      4549    3    0    1
 -2       654       660      1582       661
 -1      4550    3    0    1
 -2       637      1476       169       644
 -1      4551    3    0    1
 -2      1449       644       651      2077
 -1      4552    3    0    1
 -2      1908      1710      1681      2043
 -1      4553    3    0    1
 -2      1506       169       894       889
 -1      4554    3    0    1
 -2      1710      1459       621       628
 -1      4555    3    0    1
 -2       622      1459      1506       629
 -1      4556    3    0    1
 -2       630      1506       623       167
 -1      4557    3    0    1
 -2       890      1506       895       889
 -1      4558    3    0    1
 -2       894       895      1506       889
 -1      4559    3    0    1
 -2       642      1432       636       643
 -1      4560    3    0    1
 -2      1406       657      1378      1937
 -1      4561    3    0    1
 -2       910       914       909      1422
 -1      4562    3    0    1
 -2      1591       864       602       869
 -1      4563    3    0    1
 -2      1506       889       884       168
 -1      4564    3    0    1
 -2      1815       576      1360      1404
 -1      4565    3    0    1
 -2       167      1535       623       166
 -1      4566    3    0    1
 -2       622      1506       623       629
 -1      4567    3    0    1
 -2      1488      1365       614       607
 -1      4568    3    0    1
 -2       885       880      1535       879
 -1      4569    3    0    1
 -2       875      1535       880       874
 -1      4570    3    0    1
 -2       609      1535       616      2045
 -1      4571    3    0    1
 -2       875      1563      1535       874
 -1      4572    3    0    1
 -2      1523      1800      1902      1377
 -1      4573    3    0    1
 -2       879       880      1535       874
 -1      4574    3    0    1
 -2       166       167      1535       879
 -1      4575    3    0    1
 -2       167       884      1535       879
 -1      4576    3    0    1
 -2      1563       874       869       165
 -1      4577    3    0    1
 -2       602       864       163       164
 -1      4578    3    0    1
 -2       869      1563       165       164
 -1      4579    3    0    1
 -2      1518      1394      1912       607
 -1      4580    3    0    1
 -2      1811       596      1676       597
 -1      4581    3    0    1
 -2      1488      1518      1912       607
 -1      4582    3    0    1
 -2       609       602      1563       601
 -1      4583    3    0    1
 -2      2010      1706      1040      1033
 -1      4584    3    0    1
 -2       579       586       578      1448
 -1      4585    3    0    1
 -2      1591       163       859       162
 -1      4586    3    0    1
 -2      1591      1618      1918      2028
 -1      4587    3    0    1
 -2       163      1591       602       595
 -1      4588    3    0    1
 -2      1591       163       602       864
 -1      4589    3    0    1
 -2       594       601      1591       595
 -1      4590    3    0    1
 -2       601       602      1591       595
 -1      4591    3    0    1
 -2      1476       629       636       637
 -1      4592    3    0    1
 -2      1511      1582      1554      1773
 -1      4593    3    0    1
 -2       860      1591       865       859
 -1      4594    3    0    1
 -2      1591       860      1618       859
 -1      4595    3    0    1
 -2      1921      1576      1618      2037
 -1      4596    3    0    1
 -2       162       854      1618       161
 -1      4597    3    0    1
 -2       602      1563       869       164
 -1      4598    3    0    1
 -2       602       609      1563       164
 -1      4599    3    0    1
 -2       609       165      1563       164
 -1      4600    3    0    1
 -2       595      1591       588       162
 -1      4601    3    0    1
 -2       595       163      1591       162
 -1      4602    3    0    1
 -2       859      1618       588       162
 -1      4603    3    0    1
 -2       859       854      1618       162
 -1      4604    3    0    1
 -2       849       845      1644       844
 -1      4605    3    0    1
 -2      1918      1576      1547      2028
 -1      4606    3    0    1
 -2       849       161       160       574
 -1      4607    3    0    1
 -2       587      1576      1547       586
 -1      4608    3    0    1
 -2       581       161       849       574
 -1      4609    3    0    1
 -2       159      1644       160       574
 -1      4610    3    0    1
 -2       580       574      1618      2037
 -1      4611    3    0    1
 -2       573       580      1576      2037
 -1      4612    3    0    1
 -2       158       844      1671       839
 -1      4613    3    0    1
 -2       162      1618       588       581
 -1      4614    3    0    1
 -2       855       859       854      1618
 -1      4615    3    0    1
 -2      1671       840       839       844
 -1      4616    3    0    1
 -2       840      1671       845       844
 -1      4617    3    0    1
 -2      1495      1425      1078      1466
 -1      4618    3    0    1
 -2      1495      1425      1466      1896
 -1      4619    3    0    1
 -2      1926      1684      1929      1373
 -1      4620    3    0    1
 -2       573       574       580      2037
 -1      4621    3    0    1
 -2      1629       552       558       559
 -1      4622    3    0    1
 -2       161       849       854       581
 -1      4623    3    0    1
 -2       161       854      1618       581
 -1      4624    3    0    1
 -2      1618       854       849       581
 -1      4625    3    0    1
 -2      1918      1547      1591      2028
 -1      4626    3    0    1
 -2       588      1618      1591      2028
 -1      4627    3    0    1
 -2       588      1591       594      2028
 -1      4628    3    0    1
 -2       574      1618       581       580
 -1      4629    3    0    1
 -2       559      1671       553       560
 -1      4630    3    0    1
 -2      1788      1791      1429      1384
 -1      4631    3    0    1
 -2       562      1390      1431       569
 -1      4632    3    0    1
 -2      1421      1394      1915      1945
 -1      4633    3    0    1
 -2      1699      1394      1915      1813
 -1      4634    3    0    1
 -2      1906      1022      1015      1014
 -1      4635    3    0    1
 -2      1448       586       585      1421
 -1      4636    3    0    1
 -2       614      1365       613       606
 -1      4637    3    0    1
 -2      1365      1912      1394       607
 -1      4638    3    0    1
 -2      1376       591       590       598
 -1      4639    3    0    1
 -2      1922      1642      1896      1688
 -1      4640    3    0    1
 -2      1448      1919      1916      1384
 -1      4641    3    0    1
 -2      1602       572       566       565
 -1      4642    3    0    1
 -2      1360       575       582      1940
 -1      4643    3    0    1
 -2       557      1505       564       556
 -1      4644    3    0    1
 -2       844       158      1671       567
 -1      4645    3    0    1
 -2       574       159      1644       567
 -1      4646    3    0    1
 -2       559       565       558      1629
 -1      4647    3    0    1
 -2      1576       573       572       579
 -1      4648    3    0    1
 -2       580       573      1576       579
 -1      4649    3    0    1
 -2       586      1547       594       593
 -1      4650    3    0    1
 -2      1448      1817      1919      1384
 -1      4651    3    0    1
 -2      1817      1404      1448      1950
 -1      4652    3    0    1
 -2      1499      1352      1790      1789
 -1      4653    3    0    1
 -2       112       582       113      1705
 -1      4654    3    0    1
 -2      1547       594       587       586
 -1      4655    3    0    1
 -2      1365      1691       612      1936
 -1      4656    3    0    1
 -2       583       590       582      1940
 -1      4657    3    0    1
 -2       347       113       352      1705
 -1      4658    3    0    1
 -2       346      1812      1443       345
 -1      4659    3    0    1
 -2       607       600      1394       599
 -1      4660    3    0    1
 -2       591       584      1376       590
 -1      4661    3    0    1
 -2       600      1421      1547      1945
 -1      4662    3    0    1
 -2      1916       586      1448      1421
 -1      4663    3    0    1
 -2      1788      1814      1402      1354
 -1      4664    3    0    1
 -2      1814      1813      1402      1354
 -1      4665    3    0    1
 -2      1576      1919      1916      1448
 -1      4666    3    0    1
 -2       569      1431       563       570
 -1      4667    3    0    1
 -2      1475      1817      1919      1448
 -1      4668    3    0    1
 -2       563      1431      1458      2050
 -1      4669    3    0    1
 -2      1920      1919      1602      1475
 -1      4670    3    0    1
 -2      1816      1483      1458      1818
 -1      4671    3    0    1
 -2      1629      1920      1602       565
 -1      4672    3    0    1
 -2      2056      1236      1243      1244
 -1      4673    3    0    1
 -2      1475      1920      1411      1818
 -1      4674    3    0    1
 -2       564      1505       558       565
 -1      4675    3    0    1
 -2      1591      1518      1547      1917
 -1      4676    3    0    1
 -2      2056      1236      1605      1243
 -1      4677    3    0    1
 -2       598       604      1721       605
 -1      4678    3    0    1
 -2      1547       601       594       593
 -1      4679    3    0    1
 -2       593       585       586      1421
 -1      4680    3    0    1
 -2       593       586      1547      1421
 -1      4681    3    0    1
 -2       600      1547      1518      1945
 -1      4682    3    0    1
 -2       591      1421       592       598
 -1      4683    3    0    1
 -2      1649      1691       604       611
 -1      4684    3    0    1
 -2       569       576      1404       577
 -1      4685    3    0    1
 -2      1355      1385       531       532
 -1      4686    3    0    1
 -2       272       266      2018       267
 -1      4687    3    0    1
 -2       568       111      1360       575
 -1      4688    3    0    1
 -2       844      1671      1644       567
 -1      4689    3    0    1
 -2       560       559      1671       567
 -1      4690    3    0    1
 -2      1476       629       637      1506
 -1      4691    3    0    1
 -2      1511      1582      1540       660
 -1      4692    3    0    1
 -2      2058      1981       282      1020
 -1      4693    3    0    1
 -2      2058      1981      1020       283
 -1      4694    3    0    1
 -2       617      1691      1649       611
 -1      4695    3    0    1
 -2      1506      1535      1913      2031
 -1      4696    3    0    1
 -2      1506       622       623      2031
 -1      4697    3    0    1
 -2       622      1488       614       615
 -1      4698    3    0    1
 -2       614       620       613      1365
 -1      4699    3    0    1
 -2       607      1518       601       608
 -1      4700    3    0    1
 -2      1654      1907       642      1406
 -1      4701    3    0    1
 -2      1877      1851      1533      1561
 -1      4702    3    0    1
 -2       636      1476       637       644
 -1      4703    3    0    1
 -2      1506       169       168       637
 -1      4704    3    0    1
 -2      1654       649       656      1406
 -1      4705    3    0    1
 -2      1449      1909      1406      1968
 -1      4706    3    0    1
 -2      1432      1476       636      1968
 -1      4707    3    0    1
 -2      1367      1724      1274      1694
 -1      4708    3    0    1
 -2      1432       642       636       635
 -1      4709    3    0    1
 -2      1882      1643      1521      1885
 -1      4710    3    0    1
 -2       628      1710      1459      2043
 -1      4711    3    0    1
 -2      1681       634       635      2043
 -1      4712    3    0    1
 -2      1681      1432      1908      2043
 -1      4713    3    0    1
 -2       600      1394      1518       607
 -1      4714    3    0    1
 -2      1691      1365       612       619
 -1      4715    3    0    1
 -2      1914      1518      1488      2045
 -1      4716    3    0    1
 -2      1518      1563       601       608
 -1      4717    3    0    1
 -2      1563       609       601       608
 -1      4718    3    0    1
 -2       608      1488      1518      2045
 -1      4719    3    0    1
 -2       609      1563      1535      2045
 -1      4720    3    0    1
 -2      1774      1582      1609      2046
 -1      4721    3    0    1
 -2       397       392       121       652
 -1      4722    3    0    1
 -2      1811       355      1443      1416
 -1      4723    3    0    1
 -2      1681       641       634       633
 -1      4724    3    0    1
 -2       643       650       642      1406
 -1      4725    3    0    1
 -2      1421       585       584       591
 -1      4726    3    0    1
 -2       682       688      1525       689
 -1      4727    3    0    1
 -2       539      1700       824       546
 -1      4728    3    0    1
 -2       516      1369      1617       509
 -1      4729    3    0    1
 -2       502       508      1617       509
 -1      4730    3    0    1
 -2       538      1684       537       531
 -1      4731    3    0    1
 -2       523      1590       530       522
 -1      4732    3    0    1
 -2       266       272      2018      1802
 -1      4733    3    0    1
 -2       542       549       541      1487
 -1      4734    3    0    1
 -2       549       548      1487      1458
 -1      4735    3    0    1
 -2      1590       516       515       522
 -1      4736    3    0    1
 -2       542       543      1534      1948
 -1      4737    3    0    1
 -2      1562       530       529       536
 -1      4738    3    0    1
 -2      1534       543       537       536
 -1      4739    3    0    1
 -2       617      1691       611       618
 -1      4740    3    0    1
 -2       539       824       155       546
 -1      4741    3    0    1
 -2      1656       551       552       544
 -1      4742    3    0    1
 -2      1656       552       545       544
 -1      4743    3    0    1
 -2       546      1926       538       539
 -1      4744    3    0    1
 -2      1355       538       539       531
 -1      4745    3    0    1
 -2       532      1355       539       531
 -1      4746    3    0    1
 -2      1825      1590      1523      1826
 -1      4747    3    0    1
 -2       157       560      1671       158
 -1      4748    3    0    1
 -2        28       503        29       253
 -1      4749    3    0    1
 -2       524       530       523      1714
 -1      4750    3    0    1
 -2        38       800       799      1946
 -1      4751    3    0    1
 -2       249        38      1946      1998
 -1      4752    3    0    1
 -2       510      1412      1369      2047
 -1      4753    3    0    1
 -2       253       502       258      2013
 -1      4754    3    0    1
 -2      1530       505       506       498
 -1      4755    3    0    1
 -2       527      1501      1471       526
 -1      4756    3    0    1
 -2      1587        71        70      1153
 -1      4757    3    0    1
 -2       515      1617       508       509
 -1      4758    3    0    1
 -2       515       516      1617       509
 -1      4759    3    0    1
 -2      1617       515       508       507
 -1      4760    3    0    1
 -2       506      1575      1530      2064
 -1      4761    3    0    1
 -2       519       307       526       104
 -1      4762    3    0    1
 -2      1823      1820      1517      1471
 -1      4763    3    0    1
 -2       104       519       307       103
 -1      4764    3    0    1
 -2      1487       542      1534      1948
 -1      4765    3    0    1
 -2       562      1431      1458       563
 -1      4766    3    0    1
 -2      1475      1431       563      2050
 -1      4767    3    0    1
 -2       523       516      1590       522
 -1      4768    3    0    1
 -2       520       513       514      1546
 -1      4769    3    0    1
 -2       542       535       543      1948
 -1      4770    3    0    1
 -2      1475      1818      1431      2050
 -1      4771    3    0    1
 -2      1505       550      1534       549
 -1      4772    3    0    1
 -2      1818      1475      1505      2050
 -1      4773    3    0    1
 -2      1534       549      1487      1821
 -1      4774    3    0    1
 -2       540      1487       534       541
 -1      4775    3    0    1
 -2       108       332       554       109
 -1      4776    3    0    1
 -2       107       322      1417       327
 -1      4777    3    0    1
 -2       312       311      1444       317
 -1      4778    3    0    1
 -2       853      1439       209       858
 -1      4779    3    0    1
 -2       535       542      1487      1948
 -1      4780    3    0    1
 -2       526      1471       105       104
 -1      4781    3    0    1
 -2       533      1471       105       526
 -1      4782    3    0    1
 -2      1120      1386      1356      1119
 -1      4783    3    0    1
 -2       514      1590      1546      1826
 -1      4784    3    0    1
 -2       289      1639      1493      1801
 -1      4785    3    0    1
 -2       500       506       499      1575
 -1      4786    3    0    1
 -2      1979       286      1827      2064
 -1      4787    3    0    1
 -2      1827      1828      2003      2057
 -1      4788    3    0    1
 -2      1711      1281      1665      1834
 -1      4789    3    0    1
 -2       508       502      1617       501
 -1      4790    3    0    1
 -2      1711      1281      1280      1288
 -1      4791    3    0    1
 -2      1711      1281      1288      1665
 -1      4792    3    0    1
 -2      1901      1523      1902      1377
 -1      4793    3    0    1
 -2        33       273       498        34
 -1      4794    3    0    1
 -2       272      1018       277        42
 -1      4795    3    0    1
 -2       501       263        30      2054
 -1      4796    3    0    1
 -2       258       502        30      2054
 -1      4797    3    0    1
 -2       268       274       269      2057
 -1      4798    3    0    1
 -2      1824      1612      1823      1501
 -1      4799    3    0    1
 -2      1464       298       299       294
 -1      4800    3    0    1
 -2      1575      1617      1826      1828
 -1      4801    3    0    1
 -2        34       498       100      2066
 -1      4802    3    0    1
 -2        31       263        30       501
 -1      4803    3    0    1
 -2      1827      2051      2057       273
 -1      4804    3    0    1
 -2      1598      1575      1826      1828
 -1      4805    3    0    1
 -2      1571      1546      1825      1826
 -1      4806    3    0    1
 -2       528       529      1590       521
 -1      4807    3    0    1
 -2       198        46      1014       252
 -1      4808    3    0    1
 -2      1552      1598      1826      1828
 -1      4809    3    0    1
 -2       501        31       263      1997
 -1      4810    3    0    1
 -2       508      1617       507       501
 -1      4811    3    0    1
 -2       501       502      1617      1939
 -1      4812    3    0    1
 -2       521       529      1590       522
 -1      4813    3    0    1
 -2       501      1617       507      1939
 -1      4814    3    0    1
 -2       268       269      1828      2057
 -1      4815    3    0    1
 -2       296       302       301      1501
 -1      4816    3    0    1
 -2       507      1617       515       514
 -1      4817    3    0    1
 -2       515      1617      1590       514
 -1      4818    3    0    1
 -2      1601      1628       734       735
 -1      4819    3    0    1
 -2      1575       514       513      1546
 -1      4820    3    0    1
 -2      1487       549      1458      1821
 -1      4821    3    0    1
 -2       110       332       109      1390
 -1      4822    3    0    1
 -2      1501       302       301       307
 -1      4823    3    0    1
 -2      1431      1815      1404       569
 -1      4824    3    0    1
 -2       313        58      1062      1410
 -1      4825    3    0    1
 -2      1612      1824       296      1501
 -1      4826    3    0    1
 -2       102       505      1530       101
 -1      4827    3    0    1
 -2       546      1656       552       545
 -1      4828    3    0    1
 -2       521      1590       514       522
 -1      4829    3    0    1
 -2      1590       515       514       522
 -1      4830    3    0    1
 -2       590      1705       582      1940
 -1      4831    3    0    1
 -2       565       571       564      1475
 -1      4832    3    0    1
 -2      1390      1499       331      1816
 -1      4833    3    0    1
 -2      1431      1475       563       570
 -1      4834    3    0    1
 -2       312      1444      1471       533
 -1      4835    3    0    1
 -2      1517      1501      1546      1823
 -1      4836    3    0    1
 -2       332       327      1417       326
 -1      4837    3    0    1
 -2       534      1444       540       533
 -1      4838    3    0    1
 -2       513       505      1530       512
 -1      4839    3    0    1
 -2      1816      1455      1483      1818
 -1      4840    3    0    1
 -2      1458       548      1487      2060
 -1      4841    3    0    1
 -2      1501      1824      1530      2063
 -1      4842    3    0    1
 -2      1444       322       547       107
 -1      4843    3    0    1
 -2       306      1471      1501       307
 -1      4844    3    0    1
 -2       528       534       527      1517
 -1      4845    3    0    1
 -2       302      1501       297       103
 -1      4846    3    0    1
 -2      1590       521       514      1546
 -1      4847    3    0    1
 -2       549       542      1534      1487
 -1      4848    3    0    1
 -2       527       520       528      1546
 -1      4849    3    0    1
 -2       528       520       521      1546
 -1      4850    3    0    1
 -2      1824      1571      1546      1823
 -1      4851    3    0    1
 -2      1617       514      1575      1826
 -1      4852    3    0    1
 -2       528       527      1546      1517
 -1      4853    3    0    1
 -2      1612      1571      1824      1823
 -1      4854    3    0    1
 -2       535      1562       528       536
 -1      4855    3    0    1
 -2      1562       529       528       536
 -1      4856    3    0    1
 -2       263       268      1939      1997
 -1      4857    3    0    1
 -2      1905      1552      1931      2004
 -1      4858    3    0    1
 -2       265      1931       264      1828
 -1      4859    3    0    1
 -2      1562      1494      1822      1825
 -1      4860    3    0    1
 -2       308        57       303      1437
 -1      4861    3    0    1
 -2      1517      1562      1822      1825
 -1      4862    3    0    1
 -2       271       266       265      1802
 -1      4863    3    0    1
 -2      1823       301       306      1501
 -1      4864    3    0    1
 -2       286      1827       291      1639
 -1      4865    3    0    1
 -2      1823      1471       306      1585
 -1      4866    3    0    1
 -2       318        59       313      1410
 -1      4867    3    0    1
 -2       305       306       310      1585
 -1      4868    3    0    1
 -2       548       541       549      1487
 -1      4869    3    0    1
 -2       534       528       535      1517
 -1      4870    3    0    1
 -2      1562       535       528      1517
 -1      4871    3    0    1
 -2      1822      1534      1562      1948
 -1      4872    3    0    1
 -2      1471      1820       311      1585
 -1      4873    3    0    1
 -2       301       306      1612      1823
 -1      4874    3    0    1
 -2      1020      1027       283        52
 -1      4875    3    0    1
 -2      1027      1026      1493      2010
 -1      4876    3    0    1
 -2       549      1458      1505       556
 -1      4877    3    0    1
 -2       330       326      1528       325
 -1      4878    3    0    1
 -2       540       548       547      2060
 -1      4879    3    0    1
 -2       565      1602       572      1475
 -1      4880    3    0    1
 -2       313        59        58      1410
 -1      4881    3    0    1
 -2      1458       549      1505      1821
 -1      4882    3    0    1
 -2      1528      1483      1819      1816
 -1      4883    3    0    1
 -2       320       319      1557      1793
 -1      4884    3    0    1
 -2      1444       321       322       316
 -1      4885    3    0    1
 -2      1534      1505       549      1821
 -1      4886    3    0    1
 -2      1425      1078      1079      1452
 -1      4887    3    0    1
 -2      1612       301      1823      1501
 -1      4888    3    0    1
 -2      1795      1821      1483      1438
 -1      4889    3    0    1
 -2      1824      1575      1530      2063
 -1      4890    3    0    1
 -2      1794      1650      1677      1796
 -1      4891    3    0    1
 -2      1471      1823      1820      1585
 -1      4892    3    0    1
 -2      1575       513       506      1530
 -1      4893    3    0    1
 -2      1825      1494      1822      1542
 -1      4894    3    0    1
 -2      1055      1062      1054      1410
 -1      4895    3    0    1
 -2      1825      1571      1523      1799
 -1      4896    3    0    1
 -2      1073      1074      1080      1663
 -1      4897    3    0    1
 -2      1513      1487      1820      1819
 -1      4898    3    0    1
 -2       267      1989      1017      1988
 -1      4899    3    0    1
 -2      1487      1822      1821      1513
 -1      4900    3    0    1
 -2      1487      1820      1822      1513
 -1      4901    3    0    1
 -2      1513      1483      1819      1793
 -1      4902    3    0    1
 -2      1822      1465      1821      1513
 -1      4903    3    0    1
 -2      1501       296       302       297
 -1      4904    3    0    1
 -2      1587        71      1153       378
 -1      4905    3    0    1
 -2       534      1517      1820      1471
 -1      4906    3    0    1
 -2      1902      1401      1539      1904
 -1      4907    3    0    1
 -2      1587        71       378       373
 -1      4908    3    0    1
 -2      1517       534       527      1471
 -1      4909    3    0    1
 -2      1827       274       279       278
 -1      4910    3    0    1
 -2      1824      1546      1575      2063
 -1      4911    3    0    1
 -2       505       506       513      1530
 -1      4912    3    0    1
 -2      1590      1617      1928      1826
 -1      4913    3    0    1
 -2      1523      1590      1928      1826
 -1      4914    3    0    1
 -2      1997        32       268      2051
 -1      4915    3    0    1
 -2       281       284        50      1980
 -1      4916    3    0    1
 -2      1598      1827      1575      1828
 -1      4917    3    0    1
 -2      1510      1539      1903      1043
 -1      4918    3    0    1
 -2      1356       213       878       883
 -1      4919    3    0    1
 -2       282       276      1801       277
 -1      4920    3    0    1
 -2      1038      1031      1032      1377
 -1      4921    3    0    1
 -2      1800      1798      1361      1706
 -1      4922    3    0    1
 -2      1552      1617      1931      1828
 -1      4923    3    0    1
 -2      1802      1828       270      2003
 -1      4924    3    0    1
 -2       269       275       270      2003
 -1      4925    3    0    1
 -2       270       271      1802      2003
 -1      4926    3    0    1
 -2        31        32       263      1997
 -1      4927    3    0    1
 -2      1828      1617      1931      1939
 -1      4928    3    0    1
 -2       502      1931      1617      1939
 -1      4929    3    0    1
 -2       499       273        33      2051
 -1      4930    3    0    1
 -2        32       500       499      2051
 -1      4931    3    0    1
 -2       268        33       273      2051
 -1      4932    3    0    1
 -2       273      1827       274      2057
 -1      4933    3    0    1
 -2        32        33       268      2051
 -1      4934    3    0    1
 -2       268      1828      1939      2057
 -1      4935    3    0    1
 -2        32       499        33      2051
 -1      4936    3    0    1
 -2       274      1827       279       275
 -1      4937    3    0    1
 -2      1949       286      1827      1979
 -1      4938    3    0    1
 -2      1824      1530      1639       296
 -1      4939    3    0    1
 -2      1827      1598      1575      1824
 -1      4940    3    0    1
 -2      1826      1598      1571      1824
 -1      4941    3    0    1
 -2      1575      1598      1826      1824
 -1      4942    3    0    1
 -2      1826      1546      1575      1824
 -1      4943    3    0    1
 -2      1826      1571      1546      1824
 -1      4944    3    0    1
 -2       296       301      1612      1501
 -1      4945    3    0    1
 -2       296      1824      1530      1501
 -1      4946    3    0    1
 -2      1530       296      1501       297
 -1      4947    3    0    1
 -2      1801      1493      1361      1798
 -1      4948    3    0    1
 -2      1546      1824      1823      1501
 -1      4949    3    0    1
 -2      1827      1530       286       291
 -1      4950    3    0    1
 -2      1530       291      1639       296
 -1      4951    3    0    1
 -2      1801      1639      1493      1798
 -1      4952    3    0    1
 -2       290      1639       289       284
 -1      4953    3    0    1
 -2      1949        48       286      1979
 -1      4954    3    0    1
 -2      1530      1827      1824      1639
 -1      4955    3    0    1
 -2      1612       301       300       305
 -1      4956    3    0    1
 -2        50       282       281      1980
 -1      4957    3    0    1
 -2       526       307      1471       104
 -1      4958    3    0    1
 -2       310       306       311      1585
 -1      4959    3    0    1
 -2       306       301      1612       305
 -1      4960    3    0    1
 -2       293      1034        54      1493
 -1      4961    3    0    1
 -2      1639      1612       295      1798
 -1      4962    3    0    1
 -2      1464       299      1612       294
 -1      4963    3    0    1
 -2      1650      1513      1795      1796
 -1      4964    3    0    1
 -2      1546      1571      1825      1823
 -1      4965    3    0    1
 -2      1517      1546      1825      1823
 -1      4966    3    0    1
 -2      1571      1823      1797      1542
 -1      4967    3    0    1
 -2      1499      1390       331       336
 -1      4968    3    0    1
 -2      1790      1483      1528      1816
 -1      4969    3    0    1
 -2      1819      1417       321      1528
 -1      4970    3    0    1
 -2      1528      1819      1417      1816
 -1      4971    3    0    1
 -2       320      1819      1528      1557
 -1      4972    3    0    1
 -2      1405      1017      1023      1024
 -1      4973    3    0    1
 -2      1820      1444      1471       311
 -1      4974    3    0    1
 -2       315       314       309      1557
 -1      4975    3    0    1
 -2      1677      1054      1437      1047
 -1      4976    3    0    1
 -2      1819      1458      1487      2060
 -1      4977    3    0    1
 -2      1988      1017      1016      1989
 -1      4978    3    0    1
 -2      1417      1390       562       561
 -1      4979    3    0    1
 -2      1557       310       311      1585
 -1      4980    3    0    1
 -2      1044      1051      1722      1052
 -1      4981    3    0    1
 -2      1998      2047       800      1946
 -1      4982    3    0    1
 -2      1081      1074      1075      1623
 -1      4983    3    0    1
 -2      1904      1906      1428      1383
 -1      4984    3    0    1
 -2       547       540      1444       107
 -1      4985    3    0    1
 -2       334      1499      1352       329
 -1      4986    3    0    1
 -2      1815       341       336      1470
 -1      4987    3    0    1
 -2      1499      1455      1790      1816
 -1      4988    3    0    1
 -2      1786      1789      1569      1697
 -1      4989    3    0    1
 -2       562       561      1390       569
 -1      4990    3    0    1
 -2      1487       534      1820      1444
 -1      4991    3    0    1
 -2      1517      1501      1823      1471
 -1      4992    3    0    1
 -2      1998        37       801      2016
 -1      4993    3    0    1
 -2      1530      1575       513      2063
 -1      4994    3    0    1
 -2       309       310       315      1557
 -1      4995    3    0    1
 -2       302       307       519       103
 -1      4996    3    0    1
 -2       311      1444      1471       312
 -1      4997    3    0    1
 -2      1015      1906      2078      1567
 -1      4998    3    0    1
 -2      1546       527       520      1501
 -1      4999    3    0    1
 -2      1585      1557       309      1794
 -1      5000    3    0    1
 -2      1575      2051      2064       499
 -1      5001    3    0    1
 -2      1820      1513      1819      1557
 -1      5002    3    0    1
 -2       319       324      1528       320
 -1      5003    3    0    1
 -2       316      1444       311       317
 -1      5004    3    0    1
 -2      1575      2051       499       500
 -1      5005    3    0    1
 -2       102       103      1501       512
 -1      5006    3    0    1
 -2      1501       527       520       519
 -1      5007    3    0    1
 -2       312      1471       105       533
 -1      5008    3    0    1
 -2      1471       306       311       312
 -1      5009    3    0    1
 -2      1471       307       312       105
 -1      5010    3    0    1
 -2      1412       805       810      1383
 -1      5011    3    0    1
 -2       105       106       312       533
 -1      5012    3    0    1
 -2      1444      1819      1487      2060
 -1      5013    3    0    1
 -2       322      1417      1444       547
 -1      5014    3    0    1
 -2      1668      1512      1541      1785
 -1      5015    3    0    1
 -2      1819      1417      1458      2060
 -1      5016    3    0    1
 -2       547      1417      1444      2060
 -1      5017    3    0    1
 -2       546      1656       545       538
 -1      5018    3    0    1
 -2       287      1530       498       292
 -1      5019    3    0    1
 -2       512      1501      1530      2063
 -1      5020    3    0    1
 -2       812       813      1581      1608
 -1      5021    3    0    1
 -2       262      1016        44      1990
 -1      5022    3    0    1
 -2       105      1471       307       104
 -1      5023    3    0    1
 -2       519      1501       302       103
 -1      5024    3    0    1
 -2      1501       307       526       519
 -1      5025    3    0    1
 -2       307      1501       302       519
 -1      5026    3    0    1
 -2      1530      1827       286      2064
 -1      5027    3    0    1
 -2       101       100       498       292
 -1      5028    3    0    1
 -2      1530       102       297       512
 -1      5029    3    0    1
 -2       102      1501       297       512
 -1      5030    3    0    1
 -2      1501      1530       297       512
 -1      5031    3    0    1
 -2      1501      1546      1824      2063
 -1      5032    3    0    1
 -2       513      1575      1546      2063
 -1      5033    3    0    1
 -2       520      1546      1501      2063
 -1      5034    3    0    1
 -2       279        48      1949      1979
 -1      5035    3    0    1
 -2       278        48       279      1979
 -1      5036    3    0    1
 -2      1530       287       498      2064
 -1      5037    3    0    1
 -2       273       499        33       498
 -1      5038    3    0    1
 -2       284      1639       289      1801
 -1      5039    3    0    1
 -2        47       287       286      1979
 -1      5040    3    0    1
 -2       287        47         4      2066
 -1      5041    3    0    1
 -2       321      1417       322       327
 -1      5042    3    0    1
 -2       278       273       498      2064
 -1      5043    3    0    1
 -2       100       287       498       292
 -1      5044    3    0    1
 -2       108       332       327       554
 -1      5045    3    0    1
 -2      1417      1431      1390      1816
 -1      5046    3    0    1
 -2      1553      1050      1524      1900
 -1      5047    3    0    1
 -2       106      1444       533       540
 -1      5048    3    0    1
 -2       321      1819      1528       320
 -1      5049    3    0    1
 -2      1483      1528      1819      1793
 -1      5050    3    0    1
 -2      1493      1639       294      1798
 -1      5051    3    0    1
 -2       498       505       101       292
 -1      5052    3    0    1
 -2        44      1016      1015      1990
 -1      5053    3    0    1
 -2       498      1530       505       292
 -1      5054    3    0    1
 -2       308        58        57      1062
 -1      5055    3    0    1
 -2      1050      1553      1049      1042
 -1      5056    3    0    1
 -2       102      1530       297       292
 -1      5057    3    0    1
 -2       286      1530       287       292
 -1      5058    3    0    1
 -2       291      1530       286       292
 -1      5059    3    0    1
 -2        53      1027       288      1493
 -1      5060    3    0    1
 -2       664      1395      1723      1879
 -1      5061    3    0    1
 -2      1539      1401      1903      1904
 -1      5062    3    0    1
 -2        36       252       803      2001
 -1      5063    3    0    1
 -2       362       357      1676       356
 -1      5064    3    0    1
 -2      1559       384      1704       379
 -1      5065    3    0    1
 -2       537      1656      1534      1924
 -1      5066    3    0    1
 -2       593       592       585      1421
 -1      5067    3    0    1
 -2      1174       393        74      1502
 -1      5068    3    0    1
 -2      1811      1813      1402      1376
 -1      5069    3    0    1
 -2       345      1812      1443      1470
 -1      5070    3    0    1
 -2       346      1443      1705       351
 -1      5071    3    0    1
 -2      1429      1815      1812      1404
 -1      5072    3    0    1
 -2      1906       260       256      1905
 -1      5073    3    0    1
 -2      1697      1668      1104      2071
 -1      5074    3    0    1
 -2       320       315       316      1557
 -1      5075    3    0    1
 -2      1800      1523      1571      1799
 -1      5076    3    0    1
 -2       324      1528      1382       319
 -1      5077    3    0    1
 -2      1791      1455      1596      1789
 -1      5078    3    0    1
 -2        68      1614      1132       363
 -1      5079    3    0    1
 -2       198       252      1014       803
 -1      5080    3    0    1
 -2       346      1705       347       351
 -1      5081    3    0    1
 -2       374      1778      1359       379
 -1      5082    3    0    1
 -2      1818      1455      1483      1792
 -1      5083    3    0    1
 -2       371       376       375      1359
 -1      5084    3    0    1
 -2       344      1668      1443       349
 -1      5085    3    0    1
 -2      1691      1365      1810      1936
 -1      5086    3    0    1
 -2       371       377       376      1622
 -1      5087    3    0    1
 -2       396      1568       391       397
 -1      5088    3    0    1
 -2        45      1015      1014      1984
 -1      5089    3    0    1
 -2       381      1622      1595      1804
 -1      5090    3    0    1
 -2      1649       371       366      1807
 -1      5091    3    0    1
 -2      1417      1431       562      1390
 -1      5092    3    0    1
 -2      1806      1710       626       633
 -1      5093    3    0    1
 -2       645       121       120       392
 -1      5094    3    0    1
 -2      1635      1804      1595       632
 -1      5095    3    0    1
 -2      1568       392       391       397
 -1      5096    3    0    1
 -2       122       402       397      1540
 -1      5097    3    0    1
 -2      1568       646      1609      2033
 -1      5098    3    0    1
 -2       360       356      1416       355
 -1      5099    3    0    1
 -2       387       382       119      1595
 -1      5100    3    0    1
 -2      1559      1704      1778       379
 -1      5101    3    0    1
 -2      1774      1803      1634      1675
 -1      5102    3    0    1
 -2       361       367       366      1649
 -1      5103    3    0    1
 -2      1139      1145      1138      1587
 -1      5104    3    0    1
 -2       353        66      1641        67
 -1      5105    3    0    1
 -2      1443      1811      1812      1705
 -1      5106    3    0    1
 -2       563      1505      1458       556
 -1      5107    3    0    1
 -2      1083      1082      1352      1090
 -1      5108    3    0    1
 -2      1697       343       339       338
 -1      5109    3    0    1
 -2      1795      1792      1483      1623
 -1      5110    3    0    1
 -2      1795      1465      1821      1438
 -1      5111    3    0    1
 -2       351       346      1443       345
 -1      5112    3    0    1
 -2      1528       326       321       325
 -1      5113    3    0    1
 -2       331       332      1417       326
 -1      5114    3    0    1
 -2       348       343      1668        65
 -1      5115    3    0    1
 -2       112       113       347      1705
 -1      5116    3    0    1
 -2       625      1662       618       619
 -1      5117    3    0    1
 -2      1811      1808      1374      1721
 -1      5118    3    0    1
 -2      1919      1475      1448      2040
 -1      5119    3    0    1
 -2       366       361      1649      1808
 -1      5120    3    0    1
 -2      1417       107       327       108
 -1      5121    3    0    1
 -2       338        64      1697       343
 -1      5122    3    0    1
 -2       554       562      1417       555
 -1      5123    3    0    1
 -2      1444      1417      1819      2060
 -1      5124    3    0    1
 -2       626      1710      1662       619
 -1      5125    3    0    1
 -2       563      1505       556       564
 -1      5126    3    0    1
 -2       364       360      1389       359
 -1      5127    3    0    1
 -2       624       382       119       118
 -1      5128    3    0    1
 -2       118       617       624      1622
 -1      5129    3    0    1
 -2       391      1568      1774      1675
 -1      5130    3    0    1
 -2       606      1365       613       612
 -1      5131    3    0    1
 -2      1359      1778      1804      1704
 -1      5132    3    0    1
 -2       387      1595       386       381
 -1      5133    3    0    1
 -2       647       654      1609      1654
 -1      5134    3    0    1
 -2       387       120       392       638
 -1      5135    3    0    1
 -2      1595       639       638      2033
 -1      5136    3    0    1
 -2       382      1622      1595       381
 -1      5137    3    0    1
 -2       120       645       392       638
 -1      5138    3    0    1
 -2      1622       376      1359      1804
 -1      5139    3    0    1
 -2      1783      1454      1482      2072
 -1      5140    3    0    1
 -2      1676       357      1705       356
 -1      5141    3    0    1
 -2      1649       366      1808      1389
 -1      5142    3    0    1
 -2      1750      1748      1634      1400
 -1      5143    3    0    1
 -2      1359       374       375       370
 -1      5144    3    0    1
 -2       638       120       119      1595
 -1      5145    3    0    1
 -2      1132      1614      1139      2075
 -1      5146    3    0    1
 -2      1649       361      1676      1808
 -1      5147    3    0    1
 -2       362       361      1676      1649
 -1      5148    3    0    1
 -2       376       371      1622      1359
 -1      5149    3    0    1
 -2       361       362       367      1649
 -1      5150    3    0    1
 -2       563      1505      2050      1458
 -1      5151    3    0    1
 -2       367       372       366      1649
 -1      5152    3    0    1
 -2       362      1676       603      1649
 -1      5153    3    0    1
 -2      1609       639      1635      2033
 -1      5154    3    0    1
 -2       207      1077       848      1070
 -1      5155    3    0    1
 -2       597      1376       590       598
 -1      5156    3    0    1
 -2       605      1691      1721      1936
 -1      5157    3    0    1
 -2      1719      1784      1670      1783
 -1      5158    3    0    1
 -2      1649       617       372      1622
 -1      5159    3    0    1
 -2       372       371      1649      1622
 -1      5160    3    0    1
 -2      1807      1809      1719      1691
 -1      5161    3    0    1
 -2      1705      1812      1360      1940
 -1      5162    3    0    1
 -2      1421       592       585       591
 -1      5163    3    0    1
 -2      1676       115       603       596
 -1      5164    3    0    1
 -2      1676       114       115       596
 -1      5165    3    0    1
 -2      1812      1402      1814      1376
 -1      5166    3    0    1
 -2       351      1443       350       345
 -1      5167    3    0    1
 -2       113       582       589      1705
 -1      5168    3    0    1
 -2       582       112       347      1705
 -1      5169    3    0    1
 -2       352       347      1705       351
 -1      5170    3    0    1
 -2       110       337      1390       568
 -1      5171    3    0    1
 -2      1668      1512      1117      1541
 -1      5172    3    0    1
 -2      1458       549       548       555
 -1      5173    3    0    1
 -2       550      1505       557       556
 -1      5174    3    0    1
 -2       584       578      1448       577
 -1      5175    3    0    1
 -2      1785      1512      1541      1787
 -1      5176    3    0    1
 -2       571       579       578      1448
 -1      5177    3    0    1
 -2       114      1705       596       357
 -1      5178    3    0    1
 -2      1390      1815      1816      1431
 -1      5179    3    0    1
 -2      1390       332       109       561
 -1      5180    3    0    1
 -2      1417       332      1390       561
 -1      5181    3    0    1
 -2      1818      1817      1475      1431
 -1      5182    3    0    1
 -2      1429      1814      1817      1404
 -1      5183    3    0    1
 -2      1705       582       589       590
 -1      5184    3    0    1
 -2       118       382      1622       624
 -1      5185    3    0    1
 -2       304      1612       305      1585
 -1      5186    3    0    1
 -2       382       118      1622       377
 -1      5187    3    0    1
 -2       335      1789       339       334
 -1      5188    3    0    1
 -2      1812      1811      1402      1376
 -1      5189    3    0    1
 -2      1814       584      1404      1376
 -1      5190    3    0    1
 -2       357      1676       114       362
 -1      5191    3    0    1
 -2       114      1676       115       362
 -1      5192    3    0    1
 -2       115      1676       603       362
 -1      5193    3    0    1
 -2       371       366       372      1649
 -1      5194    3    0    1
 -2      1622       371      1649      1807
 -1      5195    3    0    1
 -2      1416      1811      1676      1808
 -1      5196    3    0    1
 -2        60      1382      1083      1076
 -1      5197    3    0    1
 -2      1811      1705       351       356
 -1      5198    3    0    1
 -2       825       820       826      1698
 -1      5199    3    0    1
 -2      2058      1981       283       282
 -1      5200    3    0    1
 -2       812       807       813      1608
 -1      5201    3    0    1
 -2      1705       357       351       356
 -1      5202    3    0    1
 -2      1596      1082      1089      2073
 -1      5203    3    0    1
 -2       596      1811      1676      1705
 -1      5204    3    0    1
 -2       357       596      1676      1705
 -1      5205    3    0    1
 -2      1705      1443      1811       351
 -1      5206    3    0    1
 -2       111       337       110       568
 -1      5207    3    0    1
 -2      1023      1989      1017      1405
 -1      5208    3    0    1
 -2       111       575       112      1360
 -1      5209    3    0    1
 -2       112       582       347      1360
 -1      5210    3    0    1
 -2       112       575       582      1360
 -1      5211    3    0    1
 -2       347       582      1705      1360
 -1      5212    3    0    1
 -2       590       583      1376      1940
 -1      5213    3    0    1
 -2       332       331      1417      1390
 -1      5214    3    0    1
 -2      1096      1102      1095      1569
 -1      5215    3    0    1
 -2      1650      1795      1793      1623
 -1      5216    3    0    1
 -2      1437       308      1055      1410
 -1      5217    3    0    1
 -2       336      1360       337       341
 -1      5218    3    0    1
 -2       112       111      1360       342
 -1      5219    3    0    1
 -2       347       112      1360       342
 -1      5220    3    0    1
 -2       565      1920      1602      1475
 -1      5221    3    0    1
 -2      1790      1528      1499      1816
 -1      5222    3    0    1
 -2        43      1016        44       262
 -1      5223    3    0    1
 -2       343      1668      1104      1697
 -1      5224    3    0    1
 -2      1483      1790      1528      1793
 -1      5225    3    0    1
 -2       334       335      1499       329
 -1      5226    3    0    1
 -2       257       262        45      1990
 -1      5227    3    0    1
 -2      1429      1455      1815      1817
 -1      5228    3    0    1
 -2       323      1382       318       324
 -1      5229    3    0    1
 -2      1404      1360      1812      1940
 -1      5230    3    0    1
 -2       326       331       330      1528
 -1      5231    3    0    1
 -2      1528       331       330      1499
 -1      5232    3    0    1
 -2      1089      1096      1569      2073
 -1      5233    3    0    1
 -2      1417      1819      1458      1816
 -1      5234    3    0    1
 -2      1819      1483      1458      1816
 -1      5235    3    0    1
 -2       335       330      1499       329
 -1      5236    3    0    1
 -2      1815      1817      1431      1404
 -1      5237    3    0    1
 -2       578       585       584      1448
 -1      5238    3    0    1
 -2      1818      1458      1431      2050
 -1      5239    3    0    1
 -2       330      1528      1499       329
 -1      5240    3    0    1
 -2      1528      1790      1499       329
 -1      5241    3    0    1
 -2       342       337      1360       341
 -1      5242    3    0    1
 -2      1360       342       341       346
 -1      5243    3    0    1
 -2      1360       347       342       346
 -1      5244    3    0    1
 -2      1789      1815      1499      1470
 -1      5245    3    0    1
 -2      1705       347      1360       346
 -1      5246    3    0    1
 -2      1812      1705      1360       346
 -1      5247    3    0    1
 -2      1812      1443      1705       346
 -1      5248    3    0    1
 -2      1416       361       360      1808
 -1      5249    3    0    1
 -2      1705      1811      1676       356
 -1      5250    3    0    1
 -2      1809      1710      1365       619
 -1      5251    3    0    1
 -2      1541      1402      1786      1785
 -1      5252    3    0    1
 -2      1444       312       106       533
 -1      5253    3    0    1
 -2      1356      1119       214      1126
 -1      5254    3    0    1
 -2      1779      1616      1468      1780
 -1      5255    3    0    1
 -2       375       371      1359       370
 -1      5256    3    0    1
 -2       617       117       372      1622
 -1      5257    3    0    1
 -2       638       387       120      1595
 -1      5258    3    0    1
 -2       377       372       117      1622
 -1      5259    3    0    1
 -2       647       640       648      1654
 -1      5260    3    0    1
 -2      1662      1806      1689      1809
 -1      5261    3    0    1
 -2      1635      1661      1804      1806
 -1      5262    3    0    1
 -2       119       120       387      1595
 -1      5263    3    0    1
 -2       361       365       360      1389
 -1      5264    3    0    1
 -2      1699      1810      1813      1374
 -1      5265    3    0    1
 -2      1376      1421       598      1813
 -1      5266    3    0    1
 -2       371       372       377      1622
 -1      5267    3    0    1
 -2      1044      1722      1045      1052
 -1      5268    3    0    1
 -2      1070       205      1063      1495
 -1      5269    3    0    1
 -2       361       362      1676       356
 -1      5270    3    0    1
 -2       361       365      1389       366
 -1      5271    3    0    1
 -2      1416      1785      1782      1641
 -1      5272    3    0    1
 -2      1804       380       376      1359
 -1      5273    3    0    1
 -2       828       204      1524      1049
 -1      5274    3    0    1
 -2       803      1014       198       808
 -1      5275    3    0    1
 -2       367       116       372      1649
 -1      5276    3    0    1
 -2       116       117       372      1649
 -1      5277    3    0    1
 -2       204       828      1524       833
 -1      5278    3    0    1
 -2       117       617       372      1649
 -1      5279    3    0    1
 -2      1443      1470       344       345
 -1      5280    3    0    1
 -2       646       639      1609      2033
 -1      5281    3    0    1
 -2      1989       261      1905      2078
 -1      5282    3    0    1
 -2      1781       369      1359       370
 -1      5283    3    0    1
 -2      1144      1145      1151      1454
 -1      5284    3    0    1
 -2      1148      1141      1142      1657
 -1      5285    3    0    1
 -2       368       369       374      1587
 -1      5286    3    0    1
 -2       383      1531       389       388
 -1      5287    3    0    1
 -2      1595      1804      1803      1704
 -1      5288    3    0    1
 -2       379       374      1778      1587
 -1      5289    3    0    1
 -2       394      1648      1502      1748
 -1      5290    3    0    1
 -2      1595       387       382       381
 -1      5291    3    0    1
 -2      1553      1050      1043      1042
 -1      5292    3    0    1
 -2       810       815      1353       816
 -1      5293    3    0    1
 -2       378        72      1559       383
 -1      5294    3    0    1
 -2      1662      1635      1806       633
 -1      5295    3    0    1
 -2      1634      1661      1779      1777
 -1      5296    3    0    1
 -2       394       393      1531      1502
 -1      5297    3    0    1
 -2      1428      1902      1567      1904
 -1      5298    3    0    1
 -2      1595      1803       386      1704
 -1      5299    3    0    1
 -2      1110      1109      1102      1541
 -1      5300    3    0    1
 -2       379      1559       384       378
 -1      5301    3    0    1
 -2      1416      1676       361      1808
 -1      5302    3    0    1
 -2      1804       380      1359      1704
 -1      5303    3    0    1
 -2      1698       822       826       827
 -1      5304    3    0    1
 -2       833       828      1524       827
 -1      5305    3    0    1
 -2       381       376      1622      1804
 -1      5306    3    0    1
 -2      1750      1415      1372      1172
 -1      5307    3    0    1
 -2       638       645       392      1568
 -1      5308    3    0    1
 -2      1668      1512      1641      1117
 -1      5309    3    0    1
 -2      1778      1359      1804      1689
 -1      5310    3    0    1
 -2      1044      1539      1510      1043
 -1      5311    3    0    1
 -2      1691      1662       618      1934
 -1      5312    3    0    1
 -2       642       641       634      1681
 -1      5313    3    0    1
 -2      1635      1803      1661      1805
 -1      5314    3    0    1
 -2      1776      1805      1589      1634
 -1      5315    3    0    1
 -2       654       647       648      1654
 -1      5316    3    0    1
 -2       641       648       640      1654
 -1      5317    3    0    1
 -2      1432      1909      1476      1968
 -1      5318    3    0    1
 -2      2018      1802       272      1985
 -1      5319    3    0    1
 -2      1681       640      1635      1805
 -1      5320    3    0    1
 -2       628       627      1710      2043
 -1      5321    3    0    1
 -2      1689      1359      1807      1781
 -1      5322    3    0    1
 -2       635      1432       642      1681
 -1      5323    3    0    1
 -2       642       634       635      1681
 -1      5324    3    0    1
 -2      1635      1804      1662      1806
 -1      5325    3    0    1
 -2      1907      1589      1805      1616
 -1      5326    3    0    1
 -2      1807      1622      1804      1662
 -1      5327    3    0    1
 -2      1806      1710      1643      1809
 -1      5328    3    0    1
 -2      1662      1710      1806      1809
 -1      5329    3    0    1
 -2      1689      1778      1359      1781
 -1      5330    3    0    1
 -2      1454      1778      1689      1781
 -1      5331    3    0    1
 -2       611      1649       617       610
 -1      5332    3    0    1
 -2      1614      1125      1641      2070
 -1      5333    3    0    1
 -2      1689      1719      1783      1781
 -1      5334    3    0    1
 -2      1785      1374      1416      1782
 -1      5335    3    0    1
 -2      1454      1497      1137      2072
 -1      5336    3    0    1
 -2      1689      1807      1662      1809
 -1      5337    3    0    1
 -2      1689      1806      1643      1809
 -1      5338    3    0    1
 -2      1635      1595       639       632
 -1      5339    3    0    1
 -2       688      1481      1453       687
 -1      5340    3    0    1
 -2      1681      1710      1806       633
 -1      5341    3    0    1
 -2      1681      1908      1907      1616
 -1      5342    3    0    1
 -2       659       653      1540       652
 -1      5343    3    0    1
 -2      1643      1908      1806      1616
 -1      5344    3    0    1
 -2       649       655       648      1654
 -1      5345    3    0    1
 -2      1783      1670      1643      1885
 -1      5346    3    0    1
 -2      1881      1907      1491      1616
 -1      5347    3    0    1
 -2      1635      1681      1805      1806
 -1      5348    3    0    1
 -2      1661      1635      1805      1806
 -1      5349    3    0    1
 -2      1710      1908      1681      1806
 -1      5350    3    0    1
 -2      1805      1661      1806      1616
 -1      5351    3    0    1
 -2      1114      1108      1115      1583
 -1      5352    3    0    1
 -2      1400      1779      1158      1427
 -1      5353    3    0    1
 -2      1804      1359      1807      1689
 -1      5354    3    0    1
 -2       632      1635      1662       633
 -1      5355    3    0    1
 -2       639      1635       632       633
 -1      5356    3    0    1
 -2      1806      1635      1681       633
 -1      5357    3    0    1
 -2      1710      1365      1911      1809
 -1      5358    3    0    1
 -2      1806      1661      1804      1689
 -1      5359    3    0    1
 -2      1804      1661      1778      1689
 -1      5360    3    0    1
 -2      1806      1804      1662      1689
 -1      5361    3    0    1
 -2      1692      1066      1067      1059
 -1      5362    3    0    1
 -2      1804      1807      1662      1689
 -1      5363    3    0    1
 -2      1643      1710      1911      1809
 -1      5364    3    0    1
 -2      1882      1657      1497      1885
 -1      5365    3    0    1
 -2      1912      1911      1365      1670
 -1      5366    3    0    1
 -2      1911      1643      1809      1670
 -1      5367    3    0    1
 -2      1699      1912      1810      1670
 -1      5368    3    0    1
 -2      1136      1130      1526      1129
 -1      5369    3    0    1
 -2      1809      1689      1807      1719
 -1      5370    3    0    1
 -2      1719      1689      1807      1781
 -1      5371    3    0    1
 -2      1810      1912      1365      1670
 -1      5372    3    0    1
 -2      1158      1159      1400      1427
 -1      5373    3    0    1
 -2      1911      1550      1521      1885
 -1      5374    3    0    1
 -2      1394      1912      1810      1699
 -1      5375    3    0    1
 -2      1912      1394      1915      1699
 -1      5376    3    0    1
 -2       612       605      1691       604
 -1      5377    3    0    1
 -2      1402      1374      1785      1787
 -1      5378    3    0    1
 -2      1374      1813      1811      1721
 -1      5379    3    0    1
 -2      1705      1811      1812      1376
 -1      5380    3    0    1
 -2      1810      1394      1699      1813
 -1      5381    3    0    1
 -2      1614      1781      1389       364
 -1      5382    3    0    1
 -2      1526      1555      1784      1886
 -1      5383    3    0    1
 -2      1402      1813      1374      1787
 -1      5384    3    0    1
 -2      1719      1808      1810      1374
 -1      5385    3    0    1
 -2      1784      1374      1512      1782
 -1      5386    3    0    1
 -2       607      1365       614       606
 -1      5387    3    0    1
 -2      1808      1416      1811      1374
 -1      5388    3    0    1
 -2      1354      1788      1814      1384
 -1      5389    3    0    1
 -2      1402      1812      1814      1429
 -1      5390    3    0    1
 -2       341       336      1360      1815
 -1      5391    3    0    1
 -2      1390      1360       336      1815
 -1      5392    3    0    1
 -2       336      1499      1390      1815
 -1      5393    3    0    1
 -2      1475      1505      1920      1818
 -1      5394    3    0    1
 -2       618      1622       625       624
 -1      5395    3    0    1
 -2      1505      1920       565      1475
 -1      5396    3    0    1
 -2      1815      1499      1390      1816
 -1      5397    3    0    1
 -2      1815      1455      1499      1816
 -1      5398    3    0    1
 -2      1390       331      1417      1816
 -1      5399    3    0    1
 -2      1528       326       331      1816
 -1      5400    3    0    1
 -2      1417       326      1528      1816
 -1      5401    3    0    1
 -2      1417       331       326      1816
 -1      5402    3    0    1
 -2      1920      1411      1919      1475
 -1      5403    3    0    1
 -2      1893      1791      1610      1384
 -1      5404    3    0    1
 -2       108      1417       107       554
 -1      5405    3    0    1
 -2       590      1376      1705      1940
 -1      5406    3    0    1
 -2       327      1417       108       554
 -1      5407    3    0    1
 -2      1818      1816      1455      1431
 -1      5408    3    0    1
 -2      1448      1576      1919      2040
 -1      5409    3    0    1
 -2      1475      1602       572      2040
 -1      5410    3    0    1
 -2      1475      1919      1602      2040
 -1      5411    3    0    1
 -2      1455      1817      1818      1431
 -1      5412    3    0    1
 -2      1721      1811      1676       597
 -1      5413    3    0    1
 -2      1411      1817      1475      1818
 -1      5414    3    0    1
 -2      1817      1411      1455      1818
 -1      5415    3    0    1
 -2      1817      1455      1815      1431
 -1      5416    3    0    1
 -2      1816      1815      1455      1431
 -1      5417    3    0    1
 -2      1431      1390      1815       569
 -1      5418    3    0    1
 -2       578       571      1448       577
 -1      5419    3    0    1
 -2       572      1602      1576      2040
 -1      5420    3    0    1
 -2      1394      1365       607       606
 -1      5421    3    0    1
 -2      1808      1649      1807      1691
 -1      5422    3    0    1
 -2      1808      1811      1676      1721
 -1      5423    3    0    1
 -2       597       603      1676       604
 -1      5424    3    0    1
 -2      1547      1916      1915      1421
 -1      5425    3    0    1
 -2      1814      1916      1448      1421
 -1      5426    3    0    1
 -2      1813      1394      1915      1421
 -1      5427    3    0    1
 -2       586      1576      1916      1448
 -1      5428    3    0    1
 -2       579      1576       586      1448
 -1      5429    3    0    1
 -2      1916      1547       586      1421
 -1      5430    3    0    1
 -2       578       586       585      1448
 -1      5431    3    0    1
 -2      1376      1813      1814      1421
 -1      5432    3    0    1
 -2       584      1376      1421       591
 -1      5433    3    0    1
 -2      1448       584      1814      1421
 -1      5434    3    0    1
 -2      1448       585       584      1421
 -1      5435    3    0    1
 -2      1374      1810      1813      1721
 -1      5436    3    0    1
 -2      1376      1811      1813      1721
 -1      5437    3    0    1
 -2       576      1360       575       568
 -1      5438    3    0    1
 -2       568      1815      1390       569
 -1      5439    3    0    1
 -2      1812      1705      1376      1940
 -1      5440    3    0    1
 -2       576       583       575      1940
 -1      5441    3    0    1
 -2       337      1360      1390       568
 -1      5442    3    0    1
 -2       211      1413       873       868
 -1      5443    3    0    1
 -2       850      1615      1588      1921
 -1      5444    3    0    1
 -2      1615       850      1588       851
 -1      5445    3    0    1
 -2      1815      1390      1360       568
 -1      5446    3    0    1
 -2      1404       584      1448       577
 -1      5447    3    0    1
 -2       549      1505       550       556
 -1      5448    3    0    1
 -2      1390       110       568       561
 -1      5449    3    0    1
 -2       109       110      1390       561
 -1      5450    3    0    1
 -2      1417       547       107       554
 -1      5451    3    0    1
 -2      1481       688      1453      1941
 -1      5452    3    0    1
 -2      1668      1512      1785      1641
 -1      5453    3    0    1
 -2      1117      1641      1668      1118
 -1      5454    3    0    1
 -2      1431       562       569       563
 -1      5455    3    0    1
 -2      1421      1376       598       591
 -1      5456    3    0    1
 -2      1376       584      1404       583
 -1      5457    3    0    1
 -2       565       571      1475       572
 -1      5458    3    0    1
 -2       605       612      1691      1936
 -1      5459    3    0    1
 -2       618      1622       624       617
 -1      5460    3    0    1
 -2       570      1431      1475      1950
 -1      5461    3    0    1
 -2      1448      1475      1817      1950
 -1      5462    3    0    1
 -2       570      1404      1431      1950
 -1      5463    3    0    1
 -2       577      1404       584       583
 -1      5464    3    0    1
 -2       577       576      1404       583
 -1      5465    3    0    1
 -2      1394       607       599       606
 -1      5466    3    0    1
 -2      1471      1444       534       533
 -1      5467    3    0    1
 -2       603      1676       596       597
 -1      5468    3    0    1
 -2      1721      1376      1811       597
 -1      5469    3    0    1
 -2       626       620      1710       619
 -1      5470    3    0    1
 -2      1710      1662      1806       626
 -1      5471    3    0    1
 -2       608       614       607      1488
 -1      5472    3    0    1
 -2      1299      1597      1570      2053
 -1      5473    3    0    1
 -2      1813      1376      1721       598
 -1      5474    3    0    1
 -2      1394      1813      1721       598
 -1      5475    3    0    1
 -2       618      1622       617      1934
 -1      5476    3    0    1
 -2      1421      1813      1394       598
 -1      5477    3    0    1
 -2       598      1421       592       599
 -1      5478    3    0    1
 -2      1394      1421       598       599
 -1      5479    3    0    1
 -2      1421       600      1547       593
 -1      5480    3    0    1
 -2      1394       600      1518      1945
 -1      5481    3    0    1
 -2       604       610       603      1649
 -1      5482    3    0    1
 -2      1721      1394       598       605
 -1      5483    3    0    1
 -2       599      1394       606       605
 -1      5484    3    0    1
 -2       598      1394       599       605
 -1      5485    3    0    1
 -2      1811       355       356       351
 -1      5486    3    0    1
 -2      1808      1719      1810      1691
 -1      5487    3    0    1
 -2      1719      1809      1810      1691
 -1      5488    3    0    1
 -2      1691       611       618       619
 -1      5489    3    0    1
 -2      1809      1807      1662      1691
 -1      5490    3    0    1
 -2      1365      1394      1810      1936
 -1      5491    3    0    1
 -2       605      1721      1394      1936
 -1      5492    3    0    1
 -2      1662      1691       618       619
 -1      5493    3    0    1
 -2      1365      1810      1809      1691
 -1      5494    3    0    1
 -2      1676      1721       597       604
 -1      5495    3    0    1
 -2      1676      1808      1721       604
 -1      5496    3    0    1
 -2      1789       335       339      1470
 -1      5497    3    0    1
 -2      1691      1721      1808       604
 -1      5498    3    0    1
 -2      1691      1808      1649       604
 -1      5499    3    0    1
 -2       113      1705       357       352
 -1      5500    3    0    1
 -2      1691       612       604       611
 -1      5501    3    0    1
 -2       620      1365      1710       619
 -1      5502    3    0    1
 -2      1649       117       617       610
 -1      5503    3    0    1
 -2       608       614      1488       615
 -1      5504    3    0    1
 -2      1649       116       117       610
 -1      5505    3    0    1
 -2      1356      1715      1386      1120
 -1      5506    3    0    1
 -2      1922       559      1671      1629
 -1      5507    3    0    1
 -2      1622       382      1595       631
 -1      5508    3    0    1
 -2      1622       624       382       631
 -1      5509    3    0    1
 -2      1595       382       119       631
 -1      5510    3    0    1
 -2       382       624       119       631
 -1      5511    3    0    1
 -2      1811       355      1416       356
 -1      5512    3    0    1
 -2      1662      1807      1622      1934
 -1      5513    3    0    1
 -2       611      1691       612       619
 -1      5514    3    0    1
 -2      1662      1809      1691       619
 -1      5515    3    0    1
 -2       493      1314      1570      1971
 -1      5516    3    0    1
 -2      1417       562      1458       555
 -1      5517    3    0    1
 -2      1804      1635      1662       632
 -1      5518    3    0    1
 -2       626       632      1662       633
 -1      5519    3    0    1
 -2       640      1681      1635       633
 -1      5520    3    0    1
 -2       627       620      1710       626
 -1      5521    3    0    1
 -2      1525      1496       688      1941
 -1      5522    3    0    1
 -2      1809      1662      1710       619
 -1      5523    3    0    1
 -2      1809      1365      1691       619
 -1      5524    3    0    1
 -2      1582       661      1775      1627
 -1      5525    3    0    1
 -2      1681       642       641      1654
 -1      5526    3    0    1
 -2      1378      1877      1627      1878
 -1      5527    3    0    1
 -2      1582       653       654      1609
 -1      5528    3    0    1
 -2       612      1365       613       619
 -1      5529    3    0    1
 -2       613      1365       620       619
 -1      5530    3    0    1
 -2       647       653      1609       654
 -1      5531    3    0    1
 -2       397      1568       392       652
 -1      5532    3    0    1
 -2      1595      1635       639      2033
 -1      5533    3    0    1
 -2       554      1417       547       555
 -1      5534    3    0    1
 -2       561      1417       332       554
 -1      5535    3    0    1
 -2       327       332      1417       554
 -1      5536    3    0    1
 -2       561       332       109       554
 -1      5537    3    0    1
 -2       338        64        63      1697
 -1      5538    3    0    1
 -2      1655       727      1628       728
 -1      5539    3    0    1
 -2       919       665      1395       672
 -1      5540    3    0    1
 -2        83       443      1362       438
 -1      5541    3    0    1
 -2       555       562      1458       556
 -1      5542    3    0    1
 -2      1458       562       563       556
 -1      5543    3    0    1
 -2      1404      1817      1431      1950
 -1      5544    3    0    1
 -2      1404       569       577       570
 -1      5545    3    0    1
 -2      1404      1431       569       570
 -1      5546    3    0    1
 -2       671       678      1723      1395
 -1      5547    3    0    1
 -2      1387      1716      1758      1953
 -1      5548    3    0    1
 -2      1922      1921      1602      1660
 -1      5549    3    0    1
 -2      1600       675       668      1554
 -1      5550    3    0    1
 -2       687       417       126       680
 -1      5551    3    0    1
 -2      1540      1582      1774      2046
 -1      5552    3    0    1
 -2      1414       731       730      1387
 -1      5553    3    0    1
 -2       419       423       418      1418
 -1      5554    3    0    1
 -2      1414      1761      1436      1763
 -1      5555    3    0    1
 -2       710       709      1467      1440
 -1      5556    3    0    1
 -2      1467      1440      1767      1944
 -1      5557    3    0    1
 -2      1357      1702       759       758
 -1      5558    3    0    1
 -2       745      1403      1760      1430
 -1      5559    3    0    1
 -2       726       718       719      1485
 -1      5560    3    0    1
 -2      1764      1440      1767      1463
 -1      5561    3    0    1
 -2      1440       717       724      1485
 -1      5562    3    0    1
 -2      1655       727       728       720
 -1      5563    3    0    1
 -2       132       729      1371       722
 -1      5564    3    0    1
 -2      1492      1742      1741      1632
 -1      5565    3    0    1
 -2      1509      1762      1765      1399
 -1      5566    3    0    1
 -2       734      1601      1556      1867
 -1      5567    3    0    1
 -2      1479      1736      1436      1735
 -1      5568    3    0    1
 -2       697       698      1515      1544
 -1      5569    3    0    1
 -2      1481      1511      1770       411
 -1      5570    3    0    1
 -2      1391       424       428       429
 -1      5571    3    0    1
 -2      1467      1515      1767      1768
 -1      5572    3    0    1
 -2      1426      1496      1453       695
 -1      5573    3    0    1
 -2      1764      1767      1420      1463
 -1      5574    3    0    1
 -2       439       443      1362       444
 -1      5575    3    0    1
 -2      1492      1538      1740      1739
 -1      5576    3    0    1
 -2       422      1453      1481       687
 -1      5577    3    0    1
 -2      1893      1411      1791      1384
 -1      5578    3    0    1
 -2       709       710       717      1440
 -1      5579    3    0    1
 -2      1010      1961      1009      1486
 -1      5580    3    0    1
 -2      1554       675       674      1525
 -1      5581    3    0    1
 -2       674      1554      1525      1955
 -1      5582    3    0    1
 -2       688      1496       695      1453
 -1      5583    3    0    1
 -2       398        74       393      1502
 -1      5584    3    0    1
 -2      1769      1525      1770      1481
 -1      5585    3    0    1
 -2       659      1540       402       123
 -1      5586    3    0    1
 -2       392       645       121       652
 -1      5587    3    0    1
 -2      1772      1775      1533      1580
 -1      5588    3    0    1
 -2       655       661       654      1627
 -1      5589    3    0    1
 -2      1669      1900      1698       827
 -1      5590    3    0    1
 -2       653      1540       660       659
 -1      5591    3    0    1
 -2       690       696       689      1544
 -1      5592    3    0    1
 -2       695       689       696      1496
 -1      5593    3    0    1
 -2       675      1600       668       669
 -1      5594    3    0    1
 -2      1611      1871      1868      1666
 -1      5595    3    0    1
 -2       676       675      1600      1573
 -1      5596    3    0    1
 -2       899       905       904      1449
 -1      5597    3    0    1
 -2      1775      1776      1582      1627
 -1      5598    3    0    1
 -2       643       642      1432      1406
 -1      5599    3    0    1
 -2       915      1395      1879       920
 -1      5600    3    0    1
 -2       654       660       653      1582
 -1      5601    3    0    1
 -2       683       689      1573       690
 -1      5602    3    0    1
 -2       672       174       679      1395
 -1      5603    3    0    1
 -2      1533      1775      1749      1580
 -1      5604    3    0    1
 -2       639       640       646      1609
 -1      5605    3    0    1
 -2      1654      1776      1589      1878
 -1      5606    3    0    1
 -2      1750      1776      1607      1561
 -1      5607    3    0    1
 -2      1770      1554      1772      1580
 -1      5608    3    0    1
 -2       647       646       640      1609
 -1      5609    3    0    1
 -2      1907       642      1681      1654
 -1      5610    3    0    1
 -2       641       649       648      1654
 -1      5611    3    0    1
 -2      1091      1973      1098      1439
 -1      5612    3    0    1
 -2       655       656       662      1627
 -1      5613    3    0    1
 -2       681      1481       687       680
 -1      5614    3    0    1
 -2      1462      1854      1435      1852
 -1      5615    3    0    1
 -2       662       656       663      1627
 -1      5616    3    0    1
 -2      1426      1496       695      1467
 -1      5617    3    0    1
 -2      1426      1496      1766      1453
 -1      5618    3    0    1
 -2      1540      1568       396       397
 -1      5619    3    0    1
 -2      1769      1525      1771      1551
 -1      5620    3    0    1
 -2      1435      1853      1879      1408
 -1      5621    3    0    1
 -2       675      1772      1600      1573
 -1      5622    3    0    1
 -2      1010      1961      1486      1856
 -1      5623    3    0    1
 -2      1582      1540      1774      1773
 -1      5624    3    0    1
 -2      1580      1770      1621      1744
 -1      5625    3    0    1
 -2      1398      1099      1093      1092
 -1      5626    3    0    1
 -2      1621      1511       406       411
 -1      5627    3    0    1
 -2      1481      1770      1594       416
 -1      5628    3    0    1
 -2      1772       675      1600      1554
 -1      5629    3    0    1
 -2      1775      1772      1533      1600
 -1      5630    3    0    1
 -2      1773      1540      1774      1648
 -1      5631    3    0    1
 -2       694       695      1453       687
 -1      5632    3    0    1
 -2      1631      1702      1673      1754
 -1      5633    3    0    1
 -2      1771      1873      1544      1474
 -1      5634    3    0    1
 -2       643      1432       636      1968
 -1      5635    3    0    1
 -2       692       698      1664       699
 -1      5636    3    0    1
 -2      1771       689      1525      1496
 -1      5637    3    0    1
 -2       682       688       681      1525
 -1      5638    3    0    1
 -2       675       681       674      1525
 -1      5639    3    0    1
 -2      1686       137       757       750
 -1      5640    3    0    1
 -2       702       708       701      1426
 -1      5641    3    0    1
 -2       683       689       682      1573
 -1      5642    3    0    1
 -2       402       396      1540       401
 -1      5643    3    0    1
 -2      1610      1094      1087      1093
 -1      5644    3    0    1
 -2      1922       559       566       567
 -1      5645    3    0    1
 -2      1496       689      1525       688
 -1      5646    3    0    1
 -2       130      1426       432       129
 -1      5647    3    0    1
 -2       132      1371       447       722
 -1      5648    3    0    1
 -2       732       738      1430       739
 -1      5649    3    0    1
 -2      1754      1658      1702      1757
 -1      5650    3    0    1
 -2      1556       740      1430       747
 -1      5651    3    0    1
 -2       709       702       710      1467
 -1      5652    3    0    1
 -2       703      1544      1515      1768
 -1      5653    3    0    1
 -2       703       702       696      1467
 -1      5654    3    0    1
 -2      1496       696      1768      1544
 -1      5655    3    0    1
 -2       426      1766      1453      1426
 -1      5656    3    0    1
 -2      1515       711       705       704
 -1      5657    3    0    1
 -2      1549      1578      1737      1249
 -1      5658    3    0    1
 -2       730       736      1716       737
 -1      5659    3    0    1
 -2      1447      1492      1767      1768
 -1      5660    3    0    1
 -2      1537      1835      1694      1943
 -1      5661    3    0    1
 -2      1631      1753      1673      1978
 -1      5662    3    0    1
 -2       730       736       729      1716
 -1      5663    3    0    1
 -2       434      1391      1538      1739
 -1      5664    3    0    1
 -2      1439       857       852      1895
 -1      5665    3    0    1
 -2       452       451      1716       457
 -1      5666    3    0    1
 -2      1767      1440      1485      1944
 -1      5667    3    0    1
 -2      1686       137       750       467
 -1      5668    3    0    1
 -2       434       435      1509      1739
 -1      5669    3    0    1
 -2      1761      1414      1387      1763
 -1      5670    3    0    1
 -2      1439      1425      1085      1398
 -1      5671    3    0    1
 -2      1451       451      1761      1479
 -1      5672    3    0    1
 -2      1763      1414       731      1457
 -1      5673    3    0    1
 -2      1767      1440      1765      1463
 -1      5674    3    0    1
 -2      1767      1420      1447      1869
 -1      5675    3    0    1
 -2      1836      1613      1379      1839
 -1      5676    3    0    1
 -2      1436      1414      1763      1764
 -1      5677    3    0    1
 -2      1457       724       725      1485
 -1      5678    3    0    1
 -2       717       710       711      1485
 -1      5679    3    0    1
 -2      1767      1447      1515      1869
 -1      5680    3    0    1
 -2       703      1544       697      1515
 -1      5681    3    0    1
 -2      1765      1467      1426      1951
 -1      5682    3    0    1
 -2      1496       695       689       688
 -1      5683    3    0    1
 -2       716       717       724      1440
 -1      5684    3    0    1
 -2       724       723      1440      1414
 -1      5685    3    0    1
 -2      1846      1849      1679      1536
 -1      5686    3    0    1
 -2      1742      1674      1447      1741
 -1      5687    3    0    1
 -2      1584      1866      1868      1640
 -1      5688    3    0    1
 -2      1763      1393      1436      1764
 -1      5689    3    0    1
 -2      1693       692      1664      1993
 -1      5690    3    0    1
 -2      1572      1613      1867      1841
 -1      5691    3    0    1
 -2      1414       730      1761      1387
 -1      5692    3    0    1
 -2      1827       278      1979      2064
 -1      5693    3    0    1
 -2       731       738      1387      1763
 -1      5694    3    0    1
 -2       761       754       755      1527
 -1      5695    3    0    1
 -2      1638      1871      1611      1869
 -1      5696    3    0    1
 -2      1762      1764      1436      1463
 -1      5697    3    0    1
 -2      1420      1764      1463      1738
 -1      5698    3    0    1
 -2      1436      1763      1409      1737
 -1      5699    3    0    1
 -2      1393      1420      1866      1840
 -1      5700    3    0    1
 -2      1868      1599      1628      1867
 -1      5701    3    0    1
 -2       184       749       742      1601
 -1      5702    3    0    1
 -2      1865      1457      1430      1947
 -1      5703    3    0    1
 -2      1568       653      1609       646
 -1      5704    3    0    1
 -2      1396       982      1543      1837
 -1      5705    3    0    1
 -2      1451      1758      1732      1409
 -1      5706    3    0    1
 -2       471       466      1686      1757
 -1      5707    3    0    1
 -2      1674      1447      1844      1742
 -1      5708    3    0    1
 -2      1409      1364      1734      1737
 -1      5709    3    0    1
 -2      1440       724      1414      1764
 -1      5710    3    0    1
 -2       724       731      1414      1457
 -1      5711    3    0    1
 -2       436      1399      1426       437
 -1      5712    3    0    1
 -2       567      1922      1644       566
 -1      5713    3    0    1
 -2      1765       436      1509      1399
 -1      5714    3    0    1
 -2       450       445       446      1479
 -1      5715    3    0    1
 -2      1740      1418      1659      1215
 -1      5716    3    0    1
 -2      1739      1736      1605      1463
 -1      5717    3    0    1
 -2      1409      1732      1735      1549
 -1      5718    3    0    1
 -2      1538      1509       435      1739
 -1      5719    3    0    1
 -2        82       438        83      1362
 -1      5720    3    0    1
 -2      1463      1764      1436      1738
 -1      5721    3    0    1
 -2      1436      1736      1463      1738
 -1      5722    3    0    1
 -2      1736      1762      1436      1463
 -1      5723    3    0    1
 -2      1433      1477      1232      2034
 -1      5724    3    0    1
 -2      1872       940      1652      1679
 -1      5725    3    0    1
 -2       953       957       952      1477
 -1      5726    3    0    1
 -2      1746      1358      1848      1504
 -1      5727    3    0    1
 -2      1764      1420      1393      1738
 -1      5728    3    0    1
 -2      1566      1766      1538      1740
 -1      5729    3    0    1
 -2      1843      1447      1674      1741
 -1      5730    3    0    1
 -2       692       698       691      1664
 -1      5731    3    0    1
 -2      1768      1771      1522      1496
 -1      5732    3    0    1
 -2       696       703      1467      1768
 -1      5733    3    0    1
 -2       703      1515      1467      1768
 -1      5734    3    0    1
 -2       703      1544      1768       696
 -1      5735    3    0    1
 -2       690       684       691      1573
 -1      5736    3    0    1
 -2      1873      1544       691      1573
 -1      5737    3    0    1
 -2      1773      1775      1554      1580
 -1      5738    3    0    1
 -2       690       691      1544      1573
 -1      5739    3    0    1
 -2      1566      1769      1522      1743
 -1      5740    3    0    1
 -2      1681       641       640      1654
 -1      5741    3    0    1
 -2       656      1654      1406      1878
 -1      5742    3    0    1
 -2       668       674       667      1554
 -1      5743    3    0    1
 -2      1502      1531      1748      2065
 -1      5744    3    0    1
 -2       661       668      1775      1600
 -1      5745    3    0    1
 -2       663       656      1378      1627
 -1      5746    3    0    1
 -2       661       662       668      1600
 -1      5747    3    0    1
 -2      1600      1775      1772      1554
 -1      5748    3    0    1
 -2      1600       668      1775      1554
 -1      5749    3    0    1
 -2       668       661      1775      1554
 -1      5750    3    0    1
 -2       668       667       661      1554
 -1      5751    3    0    1
 -2       667       660       661      1554
 -1      5752    3    0    1
 -2      1540       653       660      1582
 -1      5753    3    0    1
 -2       716       709      1440      1951
 -1      5754    3    0    1
 -2      1481      1769      1453       421
 -1      5755    3    0    1
 -2      1568       653       646       652
 -1      5756    3    0    1
 -2       677       676      1600      1573
 -1      5757    3    0    1
 -2       677       683       676      1573
 -1      5758    3    0    1
 -2      1533      1600      1874      1877
 -1      5759    3    0    1
 -2      1874      1693      1873      1380
 -1      5760    3    0    1
 -2       703      1544       696       697
 -1      5761    3    0    1
 -2      1870      1664      1872      1350
 -1      5762    3    0    1
 -2      1467       696      1768      1496
 -1      5763    3    0    1
 -2      1467       695       696      1496
 -1      5764    3    0    1
 -2      1773      1607      1775      1580
 -1      5765    3    0    1
 -2      1775      1554      1582      1773
 -1      5766    3    0    1
 -2      1554      1770      1773      1580
 -1      5767    3    0    1
 -2      1554       661      1775      1582
 -1      5768    3    0    1
 -2      1554       660       661      1582
 -1      5769    3    0    1
 -2       654      1776      1582      1609
 -1      5770    3    0    1
 -2      1449       644      1476      1968
 -1      5771    3    0    1
 -2       650       656      1406       657
 -1      5772    3    0    1
 -2      1805      1681       640      1654
 -1      5773    3    0    1
 -2       649       641       642      1654
 -1      5774    3    0    1
 -2      1627      1776       654      1654
 -1      5775    3    0    1
 -2      1607      1582      1774      1773
 -1      5776    3    0    1
 -2      1607      1775      1582      1773
 -1      5777    3    0    1
 -2      1686       137       472       757
 -1      5778    3    0    1
 -2      1554      1775      1772      1580
 -1      5779    3    0    1
 -2      1847      1873      1380      1504
 -1      5780    3    0    1
 -2      1743      1687      1551      1745
 -1      5781    3    0    1
 -2      1773      1770      1621      1580
 -1      5782    3    0    1
 -2      1687      1358      1746      1745
 -1      5783    3    0    1
 -2      1770      1554      1773      1511
 -1      5784    3    0    1
 -2      1511      1554       674      1955
 -1      5785    3    0    1
 -2      1770      1594      1769      1481
 -1      5786    3    0    1
 -2      1772      1771      1525      1551
 -1      5787    3    0    1
 -2      1747      1717      1580      1744
 -1      5788    3    0    1
 -2      1496      1771      1522      1769
 -1      5789    3    0    1
 -2      1525      1771      1496      1769
 -1      5790    3    0    1
 -2      1522      1768      1496      1766
 -1      5791    3    0    1
 -2      1147      1154      1672      1148
 -1      5792    3    0    1
 -2      1768      1492      1467      1766
 -1      5793    3    0    1
 -2      1356      1701       887      1887
 -1      5794    3    0    1
 -2      1768      1522      1492      1766
 -1      5795    3    0    1
 -2      1426      1766      1765      1538
 -1      5796    3    0    1
 -2       430       434      1538       435
 -1      5797    3    0    1
 -2      1566      1594      1769      1743
 -1      5798    3    0    1
 -2      1743      1744      1594      1551
 -1      5799    3    0    1
 -2       503      2047      1369      2013
 -1      5800    3    0    1
 -2      1580      1744      1746      1551
 -1      5801    3    0    1
 -2      1742      1522      1659      1740
 -1      5802    3    0    1
 -2      1621      1770      1511       411
 -1      5803    3    0    1
 -2       125      1481       417       412
 -1      5804    3    0    1
 -2      1770      1773      1621      1511
 -1      5805    3    0    1
 -2      1595       638       387      1568
 -1      5806    3    0    1
 -2       386       387       392      1568
 -1      5807    3    0    1
 -2      1803       386       391      1568
 -1      5808    3    0    1
 -2      1657      1701      1887      1884
 -1      5809    3    0    1
 -2       386       392       391      1568
 -1      5810    3    0    1
 -2      1803      1595       386      1568
 -1      5811    3    0    1
 -2      1595       387       386      1568
 -1      5812    3    0    1
 -2      1481      1525      1770      1955
 -1      5813    3    0    1
 -2      1554       674       667      1511
 -1      5814    3    0    1
 -2      1481      1769      1525      1941
 -1      5815    3    0    1
 -2      1426       431      1766      1538
 -1      5816    3    0    1
 -2      1426       702       695       694
 -1      5817    3    0    1
 -2       431      1766       426      1426
 -1      5818    3    0    1
 -2       701       702      1426       694
 -1      5819    3    0    1
 -2      1511       674       667       666
 -1      5820    3    0    1
 -2      1511       660       659       667
 -1      5821    3    0    1
 -2      1568       391      1774       396
 -1      5822    3    0    1
 -2      1511      1540       402       659
 -1      5823    3    0    1
 -2      1155      1672      1154      1148
 -1      5824    3    0    1
 -2      1430       731      1457      1763
 -1      5825    3    0    1
 -2      1511       660       667      1554
 -1      5826    3    0    1
 -2      1426      1496      1467      1766
 -1      5827    3    0    1
 -2      1769      1771      1522      1551
 -1      5828    3    0    1
 -2      1748       394       395      1675
 -1      5829    3    0    1
 -2       394       398      1502       399
 -1      5830    3    0    1
 -2      1441      1468      1157      1158
 -1      5831    3    0    1
 -2       407      1511       666       124
 -1      5832    3    0    1
 -2       402      1511       407       401
 -1      5833    3    0    1
 -2       406       407      1511       401
 -1      5834    3    0    1
 -2       401       396      1540      1648
 -1      5835    3    0    1
 -2      1540      1511       402       401
 -1      5836    3    0    1
 -2       416      1594      1769       421
 -1      5837    3    0    1
 -2       422       126       127       687
 -1      5838    3    0    1
 -2       422      1481       416       417
 -1      5839    3    0    1
 -2       425       429      1538       430
 -1      5840    3    0    1
 -2       425       426      1538      1566
 -1      5841    3    0    1
 -2       420      1594      1769      1566
 -1      5842    3    0    1
 -2      1770      1594      1744      1551
 -1      5843    3    0    1
 -2      1114      1555      1115      1121
 -1      5844    3    0    1
 -2      1467      1766      1765      1426
 -1      5845    3    0    1
 -2       708      1399      1426      1951
 -1      5846    3    0    1
 -2      1440      1467      1767      1765
 -1      5847    3    0    1
 -2      1467      1492      1767      1765
 -1      5848    3    0    1
 -2      1568       653      2046      1609
 -1      5849    3    0    1
 -2      1430       731      1763       738
 -1      5850    3    0    1
 -2      1312      1960      1954      1330
 -1      5851    3    0    1
 -2      1914      1503      1550      1888
 -1      5852    3    0    1
 -2       765      1631      1673       772
 -1      5853    3    0    1
 -2      1725      1316       494      2055
 -1      5854    3    0    1
 -2      1686       137       467       472
 -1      5855    3    0    1
 -2      1762      1399      1371      1952
 -1      5856    3    0    1
 -2      1451       450       451      1479
 -1      5857    3    0    1
 -2       435       431       436      1538
 -1      5858    3    0    1
 -2      1409      1761      1436      1735
 -1      5859    3    0    1
 -2      1243      1242      1578      1249
 -1      5860    3    0    1
 -2      1707      1736       444      1479
 -1      5861    3    0    1
 -2      1506       629       637       630
 -1      5862    3    0    1
 -2      1396      1259      1266      2027
 -1      5863    3    0    1
 -2      1765      1762      1440      1399
 -1      5864    3    0    1
 -2      1762      1414      1440      1952
 -1      5865    3    0    1
 -2      1436      1761      1762      1479
 -1      5866    3    0    1
 -2      1761       451      1716      1371
 -1      5867    3    0    1
 -2      1479      1707      1736      1735
 -1      5868    3    0    1
 -2       471       475       470      1397
 -1      5869    3    0    1
 -2       466       471       470      1424
 -1      5870    3    0    1
 -2      1658       472       757      1686
 -1      5871    3    0    1
 -2      1439      1425      1466      1085
 -1      5872    3    0    1
 -2      1762      1761      1414      1371
 -1      5873    3    0    1
 -2       730      1414      1761      1371
 -1      5874    3    0    1
 -2      1135      1136      1526      1129
 -1      5875    3    0    1
 -2      2056      1236      1244      1362
 -1      5876    3    0    1
 -2      1526      1122      1128      1129
 -1      5877    3    0    1
 -2      1414      1762      1371      1952
 -1      5878    3    0    1
 -2       463        89        88      1279
 -1      5879    3    0    1
 -2      1399       447       442       446
 -1      5880    3    0    1
 -2      1426      1399      1765      1951
 -1      5881    3    0    1
 -2       716      1399       722       715
 -1      5882    3    0    1
 -2      1426       431       436       437
 -1      5883    3    0    1
 -2      1399      1765       436      1426
 -1      5884    3    0    1
 -2      1765      1440      1467      1951
 -1      5885    3    0    1
 -2      1399       708      1426       437
 -1      5886    3    0    1
 -2      1762      1736      1436      1479
 -1      5887    3    0    1
 -2       877      1888      1503       876
 -1      5888    3    0    1
 -2      1399      1371       447       446
 -1      5889    3    0    1
 -2      1156      1603      1155      1630
 -1      5890    3    0    1
 -2       730      1371      1716       729
 -1      5891    3    0    1
 -2       452       736       133       457
 -1      5892    3    0    1
 -2       716      1440      1399      1951
 -1      5893    3    0    1
 -2      1399      1762      1440      1952
 -1      5894    3    0    1
 -2      1453      1496      1769      1941
 -1      5895    3    0    1
 -2       426       431      1426       432
 -1      5896    3    0    1
 -2      1134      1135      1141      1657
 -1      5897    3    0    1
 -2       722      1399       442       715
 -1      5898    3    0    1
 -2      1136      1526      1497      1135
 -1      5899    3    0    1
 -2      1142      1136      1497      1135
 -1      5900    3    0    1
 -2       731       737      1387       738
 -1      5901    3    0    1
 -2      1453      1426       695       694
 -1      5902    3    0    1
 -2       729      1716       736       452
 -1      5903    3    0    1
 -2       731       737       730      1387
 -1      5904    3    0    1
 -2      1371      1716       729       452
 -1      5905    3    0    1
 -2      1371       451      1716       452
 -1      5906    3    0    1
 -2       736       729       452       133
 -1      5907    3    0    1
 -2       447       451      1371       452
 -1      5908    3    0    1
 -2      1371       447       452       133
 -1      5909    3    0    1
 -2       729      1371       452       133
 -1      5910    3    0    1
 -2       452      1716       736       457
 -1      5911    3    0    1
 -2       747       753      1403       754
 -1      5912    3    0    1
 -2       134      1716       736       743
 -1      5913    3    0    1
 -2      1414       723      1440      1952
 -1      5914    3    0    1
 -2      1014      1906       252      1984
 -1      5915    3    0    1
 -2       133      1371       447       132
 -1      5916    3    0    1
 -2       133       729      1371       132
 -1      5917    3    0    1
 -2       132       447       442       722
 -1      5918    3    0    1
 -2       447      1399       442       722
 -1      5919    3    0    1
 -2      1440      1765      1399      1951
 -1      5920    3    0    1
 -2      1426       432       437       130
 -1      5921    3    0    1
 -2       437       708      1426       130
 -1      5922    3    0    1
 -2      1672       898       217      1147
 -1      5923    3    0    1
 -2      1154      1672       217      1147
 -1      5924    3    0    1
 -2       130       442      1399       131
 -1      5925    3    0    1
 -2      1453       128       694       687
 -1      5926    3    0    1
 -2       436      1538      1509       435
 -1      5927    3    0    1
 -2       128       127      1453       427
 -1      5928    3    0    1
 -2       701      1426       432       694
 -1      5929    3    0    1
 -2       444      1479      1509       445
 -1      5930    3    0    1
 -2      1479       444      1509      1736
 -1      5931    3    0    1
 -2       442       722       715       131
 -1      5932    3    0    1
 -2      1645      1168      1161       908
 -1      5933    3    0    1
 -2      1701       898      1672      1147
 -1      5934    3    0    1
 -2      1168      1645       913       908
 -1      5935    3    0    1
 -2       437       442      1399       130
 -1      5936    3    0    1
 -2       708      1399       715       130
 -1      5937    3    0    1
 -2       437      1399       708       130
 -1      5938    3    0    1
 -2      1426       701       432       129
 -1      5939    3    0    1
 -2       130       708      1426       129
 -1      5940    3    0    1
 -2      1426       708       701       129
 -1      5941    3    0    1
 -2       422       127      1453       687
 -1      5942    3    0    1
 -2       421      1481       416       422
 -1      5943    3    0    1
 -2      1453      1481       421       422
 -1      5944    3    0    1
 -2      1453       421       426       427
 -1      5945    3    0    1
 -2       128       694       432       427
 -1      5946    3    0    1
 -2       694       432       129       128
 -1      5947    3    0    1
 -2       695       688      1453       687
 -1      5948    3    0    1
 -2       128      1453       694       427
 -1      5949    3    0    1
 -2      1426       426       432       427
 -1      5950    3    0    1
 -2      1888      1685      1356      1887
 -1      5951    3    0    1
 -2      1453       426      1426       427
 -1      5952    3    0    1
 -2       694      1426       432       427
 -1      5953    3    0    1
 -2      1453      1426       694       427
 -1      5954    3    0    1
 -2       676       682      1573       683
 -1      5955    3    0    1
 -2       416      1770      1594       411
 -1      5956    3    0    1
 -2       427       127      1453       422
 -1      5957    3    0    1
 -2       863      1098       210      1413
 -1      5958    3    0    1
 -2      1889      1555      1787      1583
 -1      5959    3    0    1
 -2       427      1453       421       422
 -1      5960    3    0    1
 -2      1481       417       687       680
 -1      5961    3    0    1
 -2       417       422      1481       687
 -1      5962    3    0    1
 -2       417       126       422       687
 -1      5963    3    0    1
 -2       858       862       857      1439
 -1      5964    3    0    1
 -2      1481       126       417       680
 -1      5965    3    0    1
 -2      1856      1339      1855      1343
 -1      5966    3    0    1
 -2       676       682       675      1573
 -1      5967    3    0    1
 -2       667       659      1511       666
 -1      5968    3    0    1
 -2       681       680       674      1955
 -1      5969    3    0    1
 -2       680       681      1481      1955
 -1      5970    3    0    1
 -2       123       407       402       659
 -1      5971    3    0    1
 -2      1594       416       411       415
 -1      5972    3    0    1
 -2       647       653       646      1609
 -1      5973    3    0    1
 -2         6       252       803        35
 -1      5974    3    0    1
 -2      1642       847      1615      1896
 -1      5975    3    0    1
 -2       399       403       398      1472
 -1      5976    3    0    1
 -2       123       407       659       124
 -1      5977    3    0    1
 -2       652       397      1540       122
 -1      5978    3    0    1
 -2       121       397       652       122
 -1      5979    3    0    1
 -2       123       659      1540       122
 -1      5980    3    0    1
 -2      1540       659       652       122
 -1      5981    3    0    1
 -2      1939       500       501      1997
 -1      5982    3    0    1
 -2      1994      1946       799      2047
 -1      5983    3    0    1
 -2       126      1481       417       125
 -1      5984    3    0    1
 -2       673      1481       680       125
 -1      5985    3    0    1
 -2       680      1481       126       125
 -1      5986    3    0    1
 -2      1601       184       735       742
 -1      5987    3    0    1
 -2      1756      1702      1673       766
 -1      5988    3    0    1
 -2      1357       744      1387      1953
 -1      5989    3    0    1
 -2       457       736       133       134
 -1      5990    3    0    1
 -2      1716       462       457       456
 -1      5991    3    0    1
 -2      1091      1973      1439      1092
 -1      5992    3    0    1
 -2       462      1716      1686       461
 -1      5993    3    0    1
 -2       130      1399       715       131
 -1      5994    3    0    1
 -2       715      1399       442       131
 -1      5995    3    0    1
 -2       457       451      1716       456
 -1      5996    3    0    1
 -2      1451      1678       454      1735
 -1      5997    3    0    1
 -2      1387      1763      1760      1409
 -1      5998    3    0    1
 -2      1716      1761      1451       456
 -1      5999    3    0    1
 -2       451      1761      1716       456
 -1      6000    3    0    1
 -2      1891      1579      1917      1606
 -1      6001    3    0    1
 -2       451      1451      1761       456
 -1      6002    3    0    1
 -2       439       443       438      1362
 -1      6003    3    0    1
 -2       440      1509       436       441
 -1      6004    3    0    1
 -2      1610      1087      1636      1938
 -1      6005    3    0    1
 -2      1399       436      1509       441
 -1      6006    3    0    1
 -2       446      1762      1509       441
 -1      6007    3    0    1
 -2      1892      1370      1398      1973
 -1      6008    3    0    1
 -2       853      1084      1466       208
 -1      6009    3    0    1
 -2       446      1399      1762       441
 -1      6010    3    0    1
 -2      1399      1509      1762       441
 -1      6011    3    0    1
 -2       463        89      1279       468
 -1      6012    3    0    1
 -2       855       850       851      1588
 -1      6013    3    0    1
 -2      1538       431       426       430
 -1      6014    3    0    1
 -2       411       417      1481       412
 -1      6015    3    0    1
 -2       409       413       408      1445
 -1      6016    3    0    1
 -2       407       406      1511       412
 -1      6017    3    0    1
 -2      1540      1773      1511       401
 -1      6018    3    0    1
 -2       406      1511      1773       401
 -1      6019    3    0    1
 -2       406      1773      1621       401
 -1      6020    3    0    1
 -2       396      1774      1540      1648
 -1      6021    3    0    1
 -2       409       413      1445       414
 -1      6022    3    0    1
 -2       411      1481      1511       412
 -1      6023    3    0    1
 -2       125       673      1481       412
 -1      6024    3    0    1
 -2       125      1511       673       412
 -1      6025    3    0    1
 -2       673      1511      1481       412
 -1      6026    3    0    1
 -2      1744      1445      1687      1743
 -1      6027    3    0    1
 -2      1621      1594      1770       410
 -1      6028    3    0    1
 -2       399       403      1472       404
 -1      6029    3    0    1
 -2       122       402      1540       123
 -1      6030    3    0    1
 -2       857      1439      1588      1895
 -1      6031    3    0    1
 -2      1766      1522      1492      1740
 -1      6032    3    0    1
 -2      1651      1490      1520      1731
 -1      6033    3    0    1
 -2      1400      1634      1779      1777
 -1      6034    3    0    1
 -2       430       434       429      1538
 -1      6035    3    0    1
 -2      1658       757       138       764
 -1      6036    3    0    1
 -2      1615      1921      1922      1660
 -1      6037    3    0    1
 -2       479       480      1368       474
 -1      6038    3    0    1
 -2      1731      1728      1397      1624
 -1      6039    3    0    1
 -2       862      1413      1560      1892
 -1      6040    3    0    1
 -2      1727      1713       484      1570
 -1      6041    3    0    1
 -2       493      1315        99      2048
 -1      6042    3    0    1
 -2       785       497       141       492
 -1      6043    3    0    1
 -2      1631       487       482       486
 -1      6044    3    0    1
 -2      1319       793      1324      1958
 -1      6045    3    0    1
 -2      1900      1480      1718      1898
 -1      6046    3    0    1
 -2      1319       149       792        14
 -1      6047    3    0    1
 -2      1065      1480      1452      1064
 -1      6048    3    0    1
 -2      1438      1663      1795      1897
 -1      6049    3    0    1
 -2      1317        96      1318      2052
 -1      6050    3    0    1
 -2      1480      1057      1050      1524
 -1      6051    3    0    1
 -2      1898      1494      1373      1901
 -1      6052    3    0    1
 -2      1624        90      1279      1286
 -1      6053    3    0    1
 -2      1658       477       476      1631
 -1      6054    3    0    1
 -2       492       497       496      1604
 -1      6055    3    0    1
 -2      1921      1633      1919      1660
 -1      6056    3    0    1
 -2       138       482       764       139
 -1      6057    3    0    1
 -2       847      1466      1615      1896
 -1      6058    3    0    1
 -2       792       497       785      1958
 -1      6059    3    0    1
 -2      1409      1451      1761      1735
 -1      6060    3    0    1
 -2       496        96       495      2052
 -1      6061    3    0    1
 -2       476       472      1658       471
 -1      6062    3    0    1
 -2       480       475      1368       474
 -1      6063    3    0    1
 -2      1658       138       477       764
 -1      6064    3    0    1
 -2      1093      1086      1398      1085
 -1      6065    3    0    1
 -2      1787      1813      1699      1354
 -1      6066    3    0    1
 -2      1255      1249      1256      2079
 -1      6067    3    0    1
 -2       496      1751       491      1604
 -1      6068    3    0    1
 -2      1651      1490      1731      1624
 -1      6069    3    0    1
 -2      1731      1397      1424       469
 -1      6070    3    0    1
 -2       470      1424       464       465
 -1      6071    3    0    1
 -2       758       757      1658       764
 -1      6072    3    0    1
 -2       481       477       482      1631
 -1      6073    3    0    1
 -2       141       785       492      1604
 -1      6074    3    0    1
 -2      1583      1116      1541      1109
 -1      6075    3    0    1
 -2       487       482       140      1631
 -1      6076    3    0    1
 -2      1606      1891      1579      1889
 -1      6077    3    0    1
 -2      1763       738      1387      1430
 -1      6078    3    0    1
 -2      1756      1375      1702       766
 -1      6079    3    0    1
 -2      1631      1658       477       764
 -1      6080    3    0    1
 -2      1758      1716      1686      1953
 -1      6081    3    0    1
 -2      1099      1100      1398      1093
 -1      6082    3    0    1
 -2      1347       194      1011       195
 -1      6083    3    0    1
 -2      1324      1329       793       148
 -1      6084    3    0    1
 -2       210       209      1091      1439
 -1      6085    3    0    1
 -2       792      1319        14      1962
 -1      6086    3    0    1
 -2      1958      1319       792      1962
 -1      6087    3    0    1
 -2       492       785       497      1604
 -1      6088    3    0    1
 -2        96       496       497      1956
 -1      6089    3    0    1
 -2      1319      1318      1751      1324
 -1      6090    3    0    1
 -2      1323      1751      1318      1324
 -1      6091    3    0    1
 -2      1646       793       786      1958
 -1      6092    3    0    1
 -2       786      1604      1646      1958
 -1      6093    3    0    1
 -2      1753      1604      1751      1646
 -1      6094    3    0    1
 -2      1294      1637      1682      2029
 -1      6095    3    0    1
 -2      1424       470       464       469
 -1      6096    3    0    1
 -2      1692      1067      1060      1059
 -1      6097    3    0    1
 -2       781       787       780      1690
 -1      6098    3    0    1
 -2      1956       497        95      1962
 -1      6099    3    0    1
 -2       497       785       141       142
 -1      6100    3    0    1
 -2       497       792       785       142
 -1      6101    3    0    1
 -2       760       766       759      1375
 -1      6102    3    0    1
 -2      1754      1397      1658      1757
 -1      6103    3    0    1
 -2      1686       750       757       758
 -1      6104    3    0    1
 -2      1760      1387      1357       745
 -1      6105    3    0    1
 -2      1354      1583      1788      1890
 -1      6106    3    0    1
 -2      1949       275       280       279
 -1      6107    3    0    1
 -2       716      1952      1399      1440
 -1      6108    3    0    1
 -2      1892      1439      1398      1895
 -1      6109    3    0    1
 -2      1122      1526      1128      1963
 -1      6110    3    0    1
 -2       758      1686      1658       757
 -1      6111    3    0    1
 -2       471       475      1397       476
 -1      6112    3    0    1
 -2      1439      1425      1398      1895
 -1      6113    3    0    1
 -2      1906      1014       252      2001
 -1      6114    3    0    1
 -2      1631       139       140       771
 -1      6115    3    0    1
 -2       743      1716       462       135
 -1      6116    3    0    1
 -2       743       134      1716       135
 -1      6117    3    0    1
 -2      1066      1663      1073      1072
 -1      6118    3    0    1
 -2       134       462      1716       135
 -1      6119    3    0    1
 -2       467       466       462      1686
 -1      6120    3    0    1
 -2      1604       491       486      1713
 -1      6121    3    0    1
 -2      1439      1425      1895      1466
 -1      6122    3    0    1
 -2       476       480       475      1368
 -1      6123    3    0    1
 -2       476       480      1368       481
 -1      6124    3    0    1
 -2      1381      1759      1709      1760
 -1      6125    3    0    1
 -2      1734      1381      1709      1760
 -1      6126    3    0    1
 -2      1686       466       462       461
 -1      6127    3    0    1
 -2       472       757       137      1658
 -1      6128    3    0    1
 -2       757       138       137      1658
 -1      6129    3    0    1
 -2       786       779      1646      1978
 -1      6130    3    0    1
 -2       481       485       480      1368
 -1      6131    3    0    1
 -2      1761      1451      1479      1735
 -1      6132    3    0    1
 -2      1398      1093      1085      1092
 -1      6133    3    0    1
 -2       486      1631       487      1604
 -1      6134    3    0    1
 -2       863       210       211      1413
 -1      6135    3    0    1
 -2      1555      1122      1115      1121
 -1      6136    3    0    1
 -2      1787      1512      1541      2069
 -1      6137    3    0    1
 -2      1713       489       484      1570
 -1      6138    3    0    1
 -2      1100      1107      1370      1583
 -1      6139    3    0    1
 -2      1541      1788      1787      1583
 -1      6140    3    0    1
 -2      1788      1102      1610      1583
 -1      6141    3    0    1
 -2      1368       476      1397       475
 -1      6142    3    0    1
 -2       137       477       472      1658
 -1      6143    3    0    1
 -2       477       481       476      1631
 -1      6144    3    0    1
 -2       477       472      1658       476
 -1      6145    3    0    1
 -2      1121      1128      1685      1963
 -1      6146    3    0    1
 -2       215       214      1126      1356
 -1      6147    3    0    1
 -2       137       477      1658       138
 -1      6148    3    0    1
 -2      1278      1277      1271      1520
 -1      6149    3    0    1
 -2      1397      1368      1728      1754
 -1      6150    3    0    1
 -2      1602      1920      1922      1660
 -1      6151    3    0    1
 -2      1636      1072      1079      1080
 -1      6152    3    0    1
 -2      1893      1660      1425      1894
 -1      6153    3    0    1
 -2      1368      1631       481       486
 -1      6154    3    0    1
 -2      1077       207       848      1466
 -1      6155    3    0    1
 -2      1669      1642      1925      1899
 -1      6156    3    0    1
 -2       140       785       141      1604
 -1      6157    3    0    1
 -2      1899      1480      1900      1524
 -1      6158    3    0    1
 -2      1897      1894      1663      1452
 -1      6159    3    0    1
 -2      1071      1072      1078      1452
 -1      6160    3    0    1
 -2      1438      1795      1465      1897
 -1      6161    3    0    1
 -2       209      1084      1439       853
 -1      6162    3    0    1
 -2      1080      1073      1663      1072
 -1      6163    3    0    1
 -2       487       140       141      1604
 -1      6164    3    0    1
 -2      1351      1397      1754      1757
 -1      6165    3    0    1
 -2       462       743       135      1686
 -1      6166    3    0    1
 -2       136       462       135      1686
 -1      6167    3    0    1
 -2       135       743       136      1686
 -1      6168    3    0    1
 -2       464      1731      1424       469
 -1      6169    3    0    1
 -2      1424      1397       470       469
 -1      6170    3    0    1
 -2      1636      1791      1610      1893
 -1      6171    3    0    1
 -2      1434      1299      1306      1570
 -1      6172    3    0    1
 -2       456      1716       462       461
 -1      6173    3    0    1
 -2      1451      1716       456       461
 -1      6174    3    0    1
 -2      1451       456       460       461
 -1      6175    3    0    1
 -2      1565      1520      1277      1733
 -1      6176    3    0    1
 -2      1758      1761      1387      1409
 -1      6177    3    0    1
 -2      1397       470       471      1424
 -1      6178    3    0    1
 -2      1754      1728      1351      1696
 -1      6179    3    0    1
 -2      1126      1133       215      1356
 -1      6180    3    0    1
 -2      1667      1713      1751      1753
 -1      6181    3    0    1
 -2      1108      1101      1109      1583
 -1      6182    3    0    1
 -2      1010      1961      1959      1009
 -1      6183    3    0    1
 -2      1753      1631      1673      1754
 -1      6184    3    0    1
 -2      1756      1754      1351      1696
 -1      6185    3    0    1
 -2      1439       862       857      1588
 -1      6186    3    0    1
 -2       140       487      1631       778
 -1      6187    3    0    1
 -2      1275      1724      1274      1268
 -1      6188    3    0    1
 -2      1397       471      1757      1424
 -1      6189    3    0    1
 -2      1658       476       471      1397
 -1      6190    3    0    1
 -2      1757      1351      1397      1731
 -1      6191    3    0    1
 -2      1753      1368      1631      1754
 -1      6192    3    0    1
 -2      1631      1368       481      1754
 -1      6193    3    0    1
 -2      1914       875       876      1532
 -1      6194    3    0    1
 -2      1604       487       140       778
 -1      6195    3    0    1
 -2       490       485       486      1713
 -1      6196    3    0    1
 -2      1979        47       287      2066
 -1      6197    3    0    1
 -2      1731      1490      1728      1624
 -1      6198    3    0    1
 -2       491       495       490      1713
 -1      6199    3    0    1
 -2       492       496       491      1604
 -1      6200    3    0    1
 -2       792        14       497      1962
 -1      6201    3    0    1
 -2      1618      1918      1921      1588
 -1      6202    3    0    1
 -2      1618       860      1918      1588
 -1      6203    3    0    1
 -2      1077      1085      1084      1466
 -1      6204    3    0    1
 -2      1688      1897      1718      1899
 -1      6205    3    0    1
 -2      1077      1078      1085      1466
 -1      6206    3    0    1
 -2      1615       852       851      1895
 -1      6207    3    0    1
 -2      1722      1494      1796      1898
 -1      6208    3    0    1
 -2       540       548      1487       541
 -1      6209    3    0    1
 -2      1604      1631       487       778
 -1      6210    3    0    1
 -2        97        96      1317       495
 -1      6211    3    0    1
 -2      1660      1920      1922      1688
 -1      6212    3    0    1
 -2      1570      1597      1727      2053
 -1      6213    3    0    1
 -2      1895      1660      1615      1896
 -1      6214    3    0    1
 -2      1751      1713      1725      1969
 -1      6215    3    0    1
 -2       855      1921       850      1588
 -1      6216    3    0    1
 -2      1604      1751       491      1713
 -1      6217    3    0    1
 -2      1900      1553      1698       827
 -1      6218    3    0    1
 -2       851       856       855      1588
 -1      6219    3    0    1
 -2      1615       851      1588      1895
 -1      6220    3    0    1
 -2      1466       852      1615      1895
 -1      6221    3    0    1
 -2      1425      1079      1086      1636
 -1      6222    3    0    1
 -2      1596      1081      1792      1636
 -1      6223    3    0    1
 -2      1663      1081      1080      1636
 -1      6224    3    0    1
 -2      1894      1411      1920      1438
 -1      6225    3    0    1
 -2      1618       855       860      1588
 -1      6226    3    0    1
 -2      1618      1921       855      1588
 -1      6227    3    0    1
 -2       491       490       486      1713
 -1      6228    3    0    1
 -2      1751       496       491      1713
 -1      6229    3    0    1
 -2      1892      1891      1606      1370
 -1      6230    3    0    1
 -2      1107      1100      1101      1583
 -1      6231    3    0    1
 -2       857       853       858      1439
 -1      6232    3    0    1
 -2       786      1604       778      1978
 -1      6233    3    0    1
 -2      1673      1756      1755      1696
 -1      6234    3    0    1
 -2      1827      2051       273      2064
 -1      6235    3    0    1
 -2       848       853      1466       208
 -1      6236    3    0    1
 -2      1466       207       848       208
 -1      6237    3    0    1
 -2      1084      1077      1466       208
 -1      6238    3    0    1
 -2      1466      1077       207       208
 -1      6239    3    0    1
 -2      1957      1324       793      1958
 -1      6240    3    0    1
 -2       491       487       492      1604
 -1      6241    3    0    1
 -2      1328      1752      1323      1957
 -1      6242    3    0    1
 -2       491       486       487      1604
 -1      6243    3    0    1
 -2      1725      1320      1315      1971
 -1      6244    3    0    1
 -2      1327      1752      1726      1970
 -1      6245    3    0    1
 -2      1202      2067      1201      1194
 -1      6246    3    0    1
 -2      1833      1859      1500      1456
 -1      6247    3    0    1
 -2       787       780      1646       786
 -1      6248    3    0    1
 -2      1725      1727      1434      1570
 -1      6249    3    0    1
 -2      1713      1604      1751      1753
 -1      6250    3    0    1
 -2      1084       853      1466      1439
 -1      6251    3    0    1
 -2      1989      1405      1905      2018
 -1      6252    3    0    1
 -2      1318      1956      1751      2052
 -1      6253    3    0    1
 -2      1645      1169      1162      1168
 -1      6254    3    0    1
 -2       962      1599      1625      1842
 -1      6255    3    0    1
 -2        98       493       494      2055
 -1      6256    3    0    1
 -2      1891      1715      1579      1889
 -1      6257    3    0    1
 -2        97      1316        98       494
 -1      6258    3    0    1
 -2      1299      1306      1305      1434
 -1      6259    3    0    1
 -2      1891      1917      1560      1606
 -1      6260    3    0    1
 -2       847      1615       851       846
 -1      6261    3    0    1
 -2      1325      1326      1726      1321
 -1      6262    3    0    1
 -2      1667      1727      1434      1725
 -1      6263    3    0    1
 -2       872      1386       877      1532
 -1      6264    3    0    1
 -2      1105       211      1098      1413
 -1      6265    3    0    1
 -2       876      1888      1503      1532
 -1      6266    3    0    1
 -2      1120      1126      1119      1356
 -1      6267    3    0    1
 -2        98      1316      1315      2055
 -1      6268    3    0    1
 -2       766      1673       773       765
 -1      6269    3    0    1
 -2      1672      1657      1630      1884
 -1      6270    3    0    1
 -2      1023      1989      1016      1017
 -1      6271    3    0    1
 -2       760       766      1375       767
 -1      6272    3    0    1
 -2      1508      1298      1478      1972
 -1      6273    3    0    1
 -2       857       862       856      1588
 -1      6274    3    0    1
 -2      1120      1113      1114      1715
 -1      6275    3    0    1
 -2      1646      1755      1673       780
 -1      6276    3    0    1
 -2      1368       486       485      1753
 -1      6277    3    0    1
 -2      1636      1072      1982      1079
 -1      6278    3    0    1
 -2      1121      1120      1114      1715
 -1      6279    3    0    1
 -2      1120      1126      1356      1127
 -1      6280    3    0    1
 -2      1100      1106      1099      1370
 -1      6281    3    0    1
 -2      1591       601      1563       602
 -1      6282    3    0    1
 -2      1887      1356      1701      1975
 -1      6283    3    0    1
 -2      1583      1788      1787      1354
 -1      6284    3    0    1
 -2      1320       243       242      1954
 -1      6285    3    0    1
 -2      1690       795       788      2015
 -1      6286    3    0    1
 -2       192       143      1009        18
 -1      6287    3    0    1
 -2      1961      1856      1344      1966
 -1      6288    3    0    1
 -2      1888      1503      1550      1887
 -1      6289    3    0    1
 -2      1339      1855      1343      1338
 -1      6290    3    0    1
 -2      1127      1133      1126      1356
 -1      6291    3    0    1
 -2      1322      1327      1326      1970
 -1      6292    3    0    1
 -2      1550      1503      1913      1887
 -1      6293    3    0    1
 -2      1856      1339      1344      1966
 -1      6294    3    0    1
 -2      1329      1324       793      1957
 -1      6295    3    0    1
 -2       794       793      1646      1957
 -1      6296    3    0    1
 -2      1725      1751      1322      1970
 -1      6297    3    0    1
 -2      1327      1726      1326      1970
 -1      6298    3    0    1
 -2      1368       485      1713      1753
 -1      6299    3    0    1
 -2      1134      1127      1685      1975
 -1      6300    3    0    1
 -2       765      1673       773       772
 -1      6301    3    0    1
 -2       486      1604      1713      1753
 -1      6302    3    0    1
 -2      1755      1673      1753      1646
 -1      6303    3    0    1
 -2      1356      1685      1127      1975
 -1      6304    3    0    1
 -2      1637      1829      1831      1478
 -1      6305    3    0    1
 -2       751       744      1357      1953
 -1      6306    3    0    1
 -2      1162      1168      1161      1645
 -1      6307    3    0    1
 -2      1397      1658       476      1754
 -1      6308    3    0    1
 -2      2047       503      1369       510
 -1      6309    3    0    1
 -2      1754      1702      1351      1757
 -1      6310    3    0    1
 -2      1757       466      1686      1424
 -1      6311    3    0    1
 -2      1604       486      1631      1753
 -1      6312    3    0    1
 -2       481      1368       476      1754
 -1      6313    3    0    1
 -2       486      1368      1631      1753
 -1      6314    3    0    1
 -2       476      1658      1631      1754
 -1      6315    3    0    1
 -2       476      1368      1397      1754
 -1      6316    3    0    1
 -2      1284      1285      1292      1461
 -1      6317    3    0    1
 -2       461      1686       466      1424
 -1      6318    3    0    1
 -2      1673      1755      1753      1696
 -1      6319    3    0    1
 -2      1658       758       764       765
 -1      6320    3    0    1
 -2      1686      1758      1757      1424
 -1      6321    3    0    1
 -2       892       898      1701       893
 -1      6322    3    0    1
 -2       894       170      1476       899
 -1      6323    3    0    1
 -2       887      1701       888       893
 -1      6324    3    0    1
 -2      1473       887       891       892
 -1      6325    3    0    1
 -2      1838      1543      1586      1837
 -1      6326    3    0    1
 -2      1419      1854      1645       907
 -1      6327    3    0    1
 -2      1832      1665      1831      1508
 -1      6328    3    0    1
 -2      1680      1351      1759      1733
 -1      6329    3    0    1
 -2      1397      1757      1731      1424
 -1      6330    3    0    1
 -2      1702      1754      1351      1756
 -1      6331    3    0    1
 -2      1754      1702      1673      1756
 -1      6332    3    0    1
 -2      1881      1462      1603      1883
 -1      6333    3    0    1
 -2      1375      1702      1759      1756
 -1      6334    3    0    1
 -2      1491      1909      1462      1883
 -1      6335    3    0    1
 -2      1754      1368      1728      1696
 -1      6336    3    0    1
 -2      1672       903       898       897
 -1      6337    3    0    1
 -2      1446      1909      1419       901
 -1      6338    3    0    1
 -2       716      1952      1440       723
 -1      6339    3    0    1
 -2      1419      1462      1909      1883
 -1      6340    3    0    1
 -2      1883      1419      1645       907
 -1      6341    3    0    1
 -2       890      1506       885      1473
 -1      6342    3    0    1
 -2       891      1473       890       886
 -1      6343    3    0    1
 -2      1630      1881      1603      1883
 -1      6344    3    0    1
 -2      1491      1521      1910      1884
 -1      6345    3    0    1
 -2      1149      1468      1156      1630
 -1      6346    3    0    1
 -2      1885      1657      1685      1887
 -1      6347    3    0    1
 -2      1149      1156      1155      1630
 -1      6348    3    0    1
 -2      1716      1761      1387      1758
 -1      6349    3    0    1
 -2      1672       218       903      1154
 -1      6350    3    0    1
 -2       217       218       903      1672
 -1      6351    3    0    1
 -2      1462      1854      1603      1883
 -1      6352    3    0    1
 -2       461      1451      1716      1758
 -1      6353    3    0    1
 -2      1854      1419       912       907
 -1      6354    3    0    1
 -2      1761      1716      1451      1758
 -1      6355    3    0    1
 -2       471      1686      1658      1757
 -1      6356    3    0    1
 -2       471      1658      1397      1757
 -1      6357    3    0    1
 -2       461      1716      1686      1758
 -1      6358    3    0    1
 -2       913      1168       908       219
 -1      6359    3    0    1
 -2      1168       913       220       219
 -1      6360    3    0    1
 -2      1565      1270      1269      1277
 -1      6361    3    0    1
 -2      1565      1269      1276      1277
 -1      6362    3    0    1
 -2      1883      1645      1603      2036
 -1      6363    3    0    1
 -2       903      1645      1672      1154
 -1      6364    3    0    1
 -2      1645       903       908      1154
 -1      6365    3    0    1
 -2      1161      1645       908      1154
 -1      6366    3    0    1
 -2       218      1161       908      1154
 -1      6367    3    0    1
 -2       908       903       218      1154
 -1      6368    3    0    1
 -2      1733      1537      1680      1730
 -1      6369    3    0    1
 -2      1754      1753      1368      1696
 -1      6370    3    0    1
 -2      1673      1753      1754      1696
 -1      6371    3    0    1
 -2      1882      1630      1657      1884
 -1      6372    3    0    1
 -2      1680      1709      1835      1733
 -1      6373    3    0    1
 -2      1272      1264      1265      1964
 -1      6374    3    0    1
 -2      1861      1759      1709      1680
 -1      6375    3    0    1
 -2      1756      1351      1759      1680
 -1      6376    3    0    1
 -2      1613      1556      1865      1862
 -1      6377    3    0    1
 -2      1910      1884      1473      1446
 -1      6378    3    0    1
 -2      1680      1759      1709      1733
 -1      6379    3    0    1
 -2      1370      1889      1606      1890
 -1      6380    3    0    1
 -2      1565      1835      1709      1733
 -1      6381    3    0    1
 -2      1759      1351      1381      1733
 -1      6382    3    0    1
 -2      1121      1114      1555      1715
 -1      6383    3    0    1
 -2      1133      1701      1356      1975
 -1      6384    3    0    1
 -2      1752      1690      1855      1626
 -1      6385    3    0    1
 -2      1398      1892      1633      1890
 -1      6386    3    0    1
 -2      1560      1413      1891      1892
 -1      6387    3    0    1
 -2       547      1458      1417      2060
 -1      6388    3    0    1
 -2      1759      1381      1709      1733
 -1      6389    3    0    1
 -2      1678       449       454      1735
 -1      6390    3    0    1
 -2      1128      1135      1127      1685
 -1      6391    3    0    1
 -2       876      1503      1914      1532
 -1      6392    3    0    1
 -2      1732      1758      1381      1409
 -1      6393    3    0    1
 -2      1886      1670      1526      1885
 -1      6394    3    0    1
 -2      1387      1761      1763      1409
 -1      6395    3    0    1
 -2      1651      1490      1624      1278
 -1      6396    3    0    1
 -2      1147       898       217      1140
 -1      6397    3    0    1
 -2       216       217       898      1140
 -1      6398    3    0    1
 -2      1147      1701       898      1140
 -1      6399    3    0    1
 -2      1356      1715      1685      1888
 -1      6400    3    0    1
 -2      1133       216      1701      1140
 -1      6401    3    0    1
 -2      1128      1120      1121      1685
 -1      6402    3    0    1
 -2      1128      1127      1120      1685
 -1      6403    3    0    1
 -2      1550      1579      1914      1888
 -1      6404    3    0    1
 -2      1685      1120      1121      1715
 -1      6405    3    0    1
 -2      1490      1278      1285      1624
 -1      6406    3    0    1
 -2      1451      1761      1758      1409
 -1      6407    3    0    1
 -2      1835      1709      1586      1836
 -1      6408    3    0    1
 -2       993       235      1367       988
 -1      6409    3    0    1
 -2       975       970       976      1572
 -1      6410    3    0    1
 -2      1709      1760      1403      1862
 -1      6411    3    0    1
 -2      1613      1836      1379      1838
 -1      6412    3    0    1
 -2      1136      1142      1497      1143
 -1      6413    3    0    1
 -2      1144      1136      1497      1143
 -1      6414    3    0    1
 -2      1686      1716       743      1953
 -1      6415    3    0    1
 -2      1427      1151      1454      2074
 -1      6416    3    0    1
 -2      1454      1780      1427      2074
 -1      6417    3    0    1
 -2      1158      1151      1468      1150
 -1      6418    3    0    1
 -2      1158      1468      1157      1150
 -1      6419    3    0    1
 -2      1143      1142      1497      1149
 -1      6420    3    0    1
 -2      1150      1468      1157      1149
 -1      6421    3    0    1
 -2      1157      1468      1156      1149
 -1      6422    3    0    1
 -2      1357      1760      1381      1758
 -1      6423    3    0    1
 -2      1387      1760      1357      1758
 -1      6424    3    0    1
 -2      1672      1657      1884      1701
 -1      6425    3    0    1
 -2      1603      1169      1163      1162
 -1      6426    3    0    1
 -2      1397      1368       475       474
 -1      6427    3    0    1
 -2      1758      1357      1686      1757
 -1      6428    3    0    1
 -2      1381      1357      1758      1757
 -1      6429    3    0    1
 -2      1759      1702      1357      1757
 -1      6430    3    0    1
 -2      1357      1381      1759      1757
 -1      6431    3    0    1
 -2      1751      1667      1753      1646
 -1      6432    3    0    1
 -2      1755      1667      1752      1646
 -1      6433    3    0    1
 -2      1142      1141      1135      1657
 -1      6434    3    0    1
 -2      1751      1752      1667      1646
 -1      6435    3    0    1
 -2      1780      1616      1468      1882
 -1      6436    3    0    1
 -2      1491      1881      1616      1882
 -1      6437    3    0    1
 -2      1780      1643      1616      1882
 -1      6438    3    0    1
 -2      1550      1911      1670      1885
 -1      6439    3    0    1
 -2      1630      1148      1149      1657
 -1      6440    3    0    1
 -2      1148      1142      1149      1657
 -1      6441    3    0    1
 -2      1630      1149      1468      1882
 -1      6442    3    0    1
 -2       895      1910      1473      1446
 -1      6443    3    0    1
 -2      1468      1616      1881      1882
 -1      6444    3    0    1
 -2      1630      1881      1491      1882
 -1      6445    3    0    1
 -2      1468      1881      1630      1882
 -1      6446    3    0    1
 -2      1149      1630      1657      1882
 -1      6447    3    0    1
 -2      1657      1497      1142      1882
 -1      6448    3    0    1
 -2      1657      1142      1149      1882
 -1      6449    3    0    1
 -2      1149      1142      1497      1882
 -1      6450    3    0    1
 -2      1670      1784      1699      1886
 -1      6451    3    0    1
 -2      1122      1128      1121      1963
 -1      6452    3    0    1
 -2      1670      1912      1550      1886
 -1      6453    3    0    1
 -2      1886      1526      1555      1963
 -1      6454    3    0    1
 -2      1784      1670      1526      1886
 -1      6455    3    0    1
 -2      1884      1521      1910      1473
 -1      6456    3    0    1
 -2      1128      1526      1135      1685
 -1      6457    3    0    1
 -2      1112      1119       213      1386
 -1      6458    3    0    1
 -2      1119       878       213      1386
 -1      6459    3    0    1
 -2       878       212       213      1386
 -1      6460    3    0    1
 -2       878       873       212      1386
 -1      6461    3    0    1
 -2       213       212      1112      1386
 -1      6462    3    0    1
 -2      1112       212       873      1386
 -1      6463    3    0    1
 -2       744      1357      1387       745
 -1      6464    3    0    1
 -2      1387       738       744       745
 -1      6465    3    0    1
 -2      1356      1888       877      1386
 -1      6466    3    0    1
 -2      1891      1560      1892      1606
 -1      6467    3    0    1
 -2       877       878       883      1356
 -1      6468    3    0    1
 -2      1856      1339      1343      1344
 -1      6469    3    0    1
 -2      1356       877       878      1386
 -1      6470    3    0    1
 -2      1395      1422       664       665
 -1      6471    3    0    1
 -2      1356       878      1119      1386
 -1      6472    3    0    1
 -2      1119      1112      1113      1386
 -1      6473    3    0    1
 -2      1889      1114      1555      1583
 -1      6474    3    0    1
 -2      1356      1715      1888      1386
 -1      6475    3    0    1
 -2      1120      1119      1113      1386
 -1      6476    3    0    1
 -2      1888      1715      1685      1886
 -1      6477    3    0    1
 -2      1579      1715      1888      1886
 -1      6478    3    0    1
 -2      1526      1122      1555      1963
 -1      6479    3    0    1
 -2      1121      1555      1122      1963
 -1      6480    3    0    1
 -2      1888      1550      1579      1886
 -1      6481    3    0    1
 -2      1888      1685      1550      1886
 -1      6482    3    0    1
 -2      1886      1685      1550      1885
 -1      6483    3    0    1
 -2      1526      1685      1886      1885
 -1      6484    3    0    1
 -2      1135      1497      1657      1885
 -1      6485    3    0    1
 -2      1135      1526      1497      1885
 -1      6486    3    0    1
 -2      1685      1526      1135      1885
 -1      6487    3    0    1
 -2      1135      1657      1685      1885
 -1      6488    3    0    1
 -2      1356      1127      1133      1975
 -1      6489    3    0    1
 -2      1127      1134      1133      1975
 -1      6490    3    0    1
 -2      1887      1657      1685      1975
 -1      6491    3    0    1
 -2      1141      1657      1701      1975
 -1      6492    3    0    1
 -2      1685      1657      1134      1975
 -1      6493    3    0    1
 -2      1701      1657      1887      1975
 -1      6494    3    0    1
 -2      1887      1701       887      1473
 -1      6495    3    0    1
 -2      1884      1701      1887      1473
 -1      6496    3    0    1
 -2      1913       885      1506      1473
 -1      6497    3    0    1
 -2       745      1760      1387      1430
 -1      6498    3    0    1
 -2       898      1701      1672       897
 -1      6499    3    0    1
 -2      1430       739       738       746
 -1      6500    3    0    1
 -2      1356       883       882       888
 -1      6501    3    0    1
 -2       897       898      1701       892
 -1      6502    3    0    1
 -2      1887      1503      1913      1473
 -1      6503    3    0    1
 -2      1910      1491      1884      1446
 -1      6504    3    0    1
 -2      1909      1910      1476      1446
 -1      6505    3    0    1
 -2       902       903      1672       897
 -1      6506    3    0    1
 -2      1756      1673      1755      1720
 -1      6507    3    0    1
 -2       747       753       746      1403
 -1      6508    3    0    1
 -2       758      1686       750       751
 -1      6509    3    0    1
 -2      1473      1446       897       896
 -1      6510    3    0    1
 -2      1357      1403       752      1977
 -1      6511    3    0    1
 -2      1909      1419      1883      1446
 -1      6512    3    0    1
 -2      1476       895       900      1446
 -1      6513    3    0    1
 -2      1403      1760      1357       745
 -1      6514    3    0    1
 -2      1476       900      1909      1446
 -1      6515    3    0    1
 -2      1910       890       895      1473
 -1      6516    3    0    1
 -2      1909      1491      1910      1446
 -1      6517    3    0    1
 -2      1883      1491      1909      1446
 -1      6518    3    0    1
 -2      1883      1884      1491      1446
 -1      6519    3    0    1
 -2       481       485      1368       486
 -1      6520    3    0    1
 -2       758      1357      1686       751
 -1      6521    3    0    1
 -2       766      1673      1720       773
 -1      6522    3    0    1
 -2      1673       766      1720      1756
 -1      6523    3    0    1
 -2      1631       477       482       764
 -1      6524    3    0    1
 -2       759      1702      1375       766
 -1      6525    3    0    1
 -2       907      1419       906       902
 -1      6526    3    0    1
 -2       751       758      1357       752
 -1      6527    3    0    1
 -2      1403      1357       752       745
 -1      6528    3    0    1
 -2      1403      1759      1375      1977
 -1      6529    3    0    1
 -2      1702      1357       759      1977
 -1      6530    3    0    1
 -2      1702      1759      1357      1977
 -1      6531    3    0    1
 -2       759      1357       758       752
 -1      6532    3    0    1
 -2       744       751      1357       745
 -1      6533    3    0    1
 -2      1357       751       752       745
 -1      6534    3    0    1
 -2      1720      1375      1756       766
 -1      6535    3    0    1
 -2       900       905      1419       901
 -1      6536    3    0    1
 -2       897      1446       902       901
 -1      6537    3    0    1
 -2       902      1419       906       901
 -1      6538    3    0    1
 -2      1446       900      1909       901
 -1      6539    3    0    1
 -2       766      1702      1673       765
 -1      6540    3    0    1
 -2       894       170       169      1476
 -1      6541    3    0    1
 -2      1473       895      1446       896
 -1      6542    3    0    1
 -2       902      1883      1419       901
 -1      6543    3    0    1
 -2       902      1446      1883       901
 -1      6544    3    0    1
 -2      1446      1419      1883       901
 -1      6545    3    0    1
 -2      1333      1752      2020      1855
 -1      6546    3    0    1
 -2      1752      1333      2020      1965
 -1      6547    3    0    1
 -2      1337      1341      1336      1829
 -1      6548    3    0    1
 -2       901      1446       900       896
 -1      6549    3    0    1
 -2      1446       895       900       896
 -1      6550    3    0    1
 -2       764      1631       765       772
 -1      6551    3    0    1
 -2       887      1473       891       886
 -1      6552    3    0    1
 -2       896      1473       895       891
 -1      6553    3    0    1
 -2      1473       890       895       891
 -1      6554    3    0    1
 -2       482      1631       764       771
 -1      6555    3    0    1
 -2       139       482       764       771
 -1      6556    3    0    1
 -2       887      1887      1473       886
 -1      6557    3    0    1
 -2      1887       887      1503       886
 -1      6558    3    0    1
 -2      1473      1503      1913       886
 -1      6559    3    0    1
 -2      1473      1913       885       886
 -1      6560    3    0    1
 -2       885      1913      1503       886
 -1      6561    3    0    1
 -2       482       139      1631       771
 -1      6562    3    0    1
 -2       779       786       778      1978
 -1      6563    3    0    1
 -2       882       887      1356       888
 -1      6564    3    0    1
 -2      1701      1356       887       888
 -1      6565    3    0    1
 -2       778      1604      1631      1978
 -1      6566    3    0    1
 -2      1673      1646       780       779
 -1      6567    3    0    1
 -2      1701      1884       897       892
 -1      6568    3    0    1
 -2       897      1884      1473       892
 -1      6569    3    0    1
 -2      1473      1884      1701       892
 -1      6570    3    0    1
 -2       887      1887      1503       882
 -1      6571    3    0    1
 -2      1887      1356      1503       882
 -1      6572    3    0    1
 -2       887      1356      1887       882
 -1      6573    3    0    1
 -2      1503       877       881       882
 -1      6574    3    0    1
 -2      1888       877      1503       882
 -1      6575    3    0    1
 -2      1888      1356       877       882
 -1      6576    3    0    1
 -2      1356      1888      1503       882
 -1      6577    3    0    1
 -2       771      1631       764       772
 -1      6578    3    0    1
 -2       772       778      1631      1978
 -1      6579    3    0    1
 -2       872      1560      1532       871
 -1      6580    3    0    1
 -2       876       877      1888      1532
 -1      6581    3    0    1
 -2      1888      1579      1914      1532
 -1      6582    3    0    1
 -2      1917      1560      1532      1891
 -1      6583    3    0    1
 -2      1892       862      1439      1588
 -1      6584    3    0    1
 -2      1715      1579      1888      1891
 -1      6585    3    0    1
 -2       778      1631       771       772
 -1      6586    3    0    1
 -2      1466       853       852      1439
 -1      6587    3    0    1
 -2      1386       877       878       872
 -1      6588    3    0    1
 -2      1386       878       873       872
 -1      6589    3    0    1
 -2       788       794       787      2015
 -1      6590    3    0    1
 -2       772       779       778      1978
 -1      6591    3    0    1
 -2       880      1503       875       876
 -1      6592    3    0    1
 -2       779      1646       780       786
 -1      6593    3    0    1
 -2       773      1673       780       779
 -1      6594    3    0    1
 -2       772      1673       773       779
 -1      6595    3    0    1
 -2       790       798       797      1961
 -1      6596    3    0    1
 -2       781       780      1720      1690
 -1      6597    3    0    1
 -2      1914      1917      1563      1532
 -1      6598    3    0    1
 -2      1563      1917       870      1532
 -1      6599    3    0    1
 -2       870       875      1563      1532
 -1      6600    3    0    1
 -2      1914      1563       875      1532
 -1      6601    3    0    1
 -2       789       781       782      1690
 -1      6602    3    0    1
 -2      1434      1478      1298      1972
 -1      6603    3    0    1
 -2      1965      1329      1334      1967
 -1      6604    3    0    1
 -2      1532       870       875       871
 -1      6605    3    0    1
 -2      1532       875       876       871
 -1      6606    3    0    1
 -2       147      1329       794       146
 -1      6607    3    0    1
 -2      1957       793      1646      1958
 -1      6608    3    0    1
 -2      1856      1010      1347      2023
 -1      6609    3    0    1
 -2      1890      1354      1916      1384
 -1      6610    3    0    1
 -2      1587        71       373        70
 -1      6611    3    0    1
 -2       211       210      1098      1413
 -1      6612    3    0    1
 -2      1918      1916      1633      1606
 -1      6613    3    0    1
 -2      1957      1646      1751      1958
 -1      6614    3    0    1
 -2      1989      1405      1567      1905
 -1      6615    3    0    1
 -2       873      1112      1386      1413
 -1      6616    3    0    1
 -2      1023      1989      1567      1016
 -1      6617    3    0    1
 -2      1520      1565      1277      1270
 -1      6618    3    0    1
 -2       871       872      1560       867
 -1      6619    3    0    1
 -2       873      1386       872      1413
 -1      6620    3    0    1
 -2      1891       872      1386      1413
 -1      6621    3    0    1
 -2       871      1560       870       866
 -1      6622    3    0    1
 -2       960      1599      1625       961
 -1      6623    3    0    1
 -2      1604       785       497      1958
 -1      6624    3    0    1
 -2      1646      1604      1751      1958
 -1      6625    3    0    1
 -2      1413       873       868       867
 -1      6626    3    0    1
 -2       872       873      1413       867
 -1      6627    3    0    1
 -2      1413      1891       872       867
 -1      6628    3    0    1
 -2      1413      1560      1891       867
 -1      6629    3    0    1
 -2      1891      1560       872       867
 -1      6630    3    0    1
 -2       210      1091      1098      1439
 -1      6631    3    0    1
 -2       867      1413      1560       862
 -1      6632    3    0    1
 -2       867       863      1413       862
 -1      6633    3    0    1
 -2      1328      1323      1324      1957
 -1      6634    3    0    1
 -2      1439      1085      1092      1398
 -1      6635    3    0    1
 -2      1560       865       870       866
 -1      6636    3    0    1
 -2      1751      1323      1752      1957
 -1      6637    3    0    1
 -2      1329       793       794      1957
 -1      6638    3    0    1
 -2       860       855       856      1588
 -1      6639    3    0    1
 -2       149      1319       792       793
 -1      6640    3    0    1
 -2      1921      1918      1633      1588
 -1      6641    3    0    1
 -2       866      1560       865       861
 -1      6642    3    0    1
 -2      1560       860       865       861
 -1      6643    3    0    1
 -2       867      1560       866       861
 -1      6644    3    0    1
 -2      1560       867       862       861
 -1      6645    3    0    1
 -2      1631      1604      1753      1978
 -1      6646    3    0    1
 -2      1604       786      1646      1978
 -1      6647    3    0    1
 -2       785      1604       778       786
 -1      6648    3    0    1
 -2       785       793       792      1958
 -1      6649    3    0    1
 -2       192       143       798      1009
 -1      6650    3    0    1
 -2      1646      1751      1752      1957
 -1      6651    3    0    1
 -2      1324      1323      1751      1957
 -1      6652    3    0    1
 -2       853       857       852      1439
 -1      6653    3    0    1
 -2      1896      1425      1894      1452
 -1      6654    3    0    1
 -2      1642      1615      1922      1896
 -1      6655    3    0    1
 -2       852      1615       851       847
 -1      6656    3    0    1
 -2       793       149      1319       148
 -1      6657    3    0    1
 -2       793      1319      1324       148
 -1      6658    3    0    1
 -2      1615       845       851       846
 -1      6659    3    0    1
 -2       148      1329       793       147
 -1      6660    3    0    1
 -2       847      1642      1615       846
 -1      6661    3    0    1
 -2       210       858       209      1439
 -1      6662    3    0    1
 -2      1692      1053      1650      1796
 -1      6663    3    0    1
 -2      1098       863       210      1439
 -1      6664    3    0    1
 -2       858       210       863      1439
 -1      6665    3    0    1
 -2       858       863       862      1439
 -1      6666    3    0    1
 -2       862       863      1413      1439
 -1      6667    3    0    1
 -2      1889      1606      1891      1370
 -1      6668    3    0    1
 -2      1541      1512      1116      2069
 -1      6669    3    0    1
 -2      1100      1099      1398      1370
 -1      6670    3    0    1
 -2      1610      1102      1101      1583
 -1      6671    3    0    1
 -2      1636      1072      1080      1663
 -1      6672    3    0    1
 -2      1370      1892      1413      1973
 -1      6673    3    0    1
 -2      1439      1892      1398      1973
 -1      6674    3    0    1
 -2       793      1329       794       147
 -1      6675    3    0    1
 -2       775      1720       781       774
 -1      6676    3    0    1
 -2       847       842      1642       846
 -1      6677    3    0    1
 -2       841      1642       842       846
 -1      6678    3    0    1
 -2       856       862       861      1588
 -1      6679    3    0    1
 -2       861       860       856      1588
 -1      6680    3    0    1
 -2      1725       494      1317      1969
 -1      6681    3    0    1
 -2      1892      1918      1560      1588
 -1      6682    3    0    1
 -2      1892      1560       861      1588
 -1      6683    3    0    1
 -2      1439      1085      1466      1084
 -1      6684    3    0    1
 -2      1087      1610      1093      1938
 -1      6685    3    0    1
 -2      1085      1078      1079      1425
 -1      6686    3    0    1
 -2      1065      1452      1071      1064
 -1      6687    3    0    1
 -2       746      1430       740       747
 -1      6688    3    0    1
 -2      1663      1792      1081      1636
 -1      6689    3    0    1
 -2       842       847      1642      1896
 -1      6690    3    0    1
 -2      1788      1354      1890      1384
 -1      6691    3    0    1
 -2      1889      1787      1699      1354
 -1      6692    3    0    1
 -2      1989      1405      2018      1017
 -1      6693    3    0    1
 -2      1113      1413      1112      1106
 -1      6694    3    0    1
 -2      1113      1413      1106      1370
 -1      6695    3    0    1
 -2      1918      1547      1916      1606
 -1      6696    3    0    1
 -2      1917      1547      1918      1606
 -1      6697    3    0    1
 -2      1917      1915      1547      1606
 -1      6698    3    0    1
 -2      1916      1547      1915      1606
 -1      6699    3    0    1
 -2      1606      1579      1915      1889
 -1      6700    3    0    1
 -2      1699      1915      1579      1889
 -1      6701    3    0    1
 -2      1555      1787      1699      1889
 -1      6702    3    0    1
 -2      1886      1555      1699      1889
 -1      6703    3    0    1
 -2      1886      1699      1579      1889
 -1      6704    3    0    1
 -2      1715      1555      1886      1889
 -1      6705    3    0    1
 -2      1886      1579      1715      1889
 -1      6706    3    0    1
 -2      1715      1113      1114      1370
 -1      6707    3    0    1
 -2      1106      1114      1113      1370
 -1      6708    3    0    1
 -2      1106      1107      1114      1370
 -1      6709    3    0    1
 -2      1889      1715      1114      1370
 -1      6710    3    0    1
 -2      1903      1929      1401      1373
 -1      6711    3    0    1
 -2      1085      1086      1398      1425
 -1      6712    3    0    1
 -2      1085      1079      1086      1425
 -1      6713    3    0    1
 -2       494      1725      1317      1316
 -1      6714    3    0    1
 -2      1466      1078      1085      1425
 -1      6715    3    0    1
 -2      1688      1896      1452      1899
 -1      6716    3    0    1
 -2      1495      1452      1899      2006
 -1      6717    3    0    1
 -2       761      1375       767       760
 -1      6718    3    0    1
 -2      1896       847      1466      1495
 -1      6719    3    0    1
 -2      1072      1079      1078      1452
 -1      6720    3    0    1
 -2      1893      1411      1660      1894
 -1      6721    3    0    1
 -2      1660      1411      1920      1894
 -1      6722    3    0    1
 -2      1505      1923      1920      1438
 -1      6723    3    0    1
 -2      1821      1505      1818      1438
 -1      6724    3    0    1
 -2      1633      1660      1895      1893
 -1      6725    3    0    1
 -2      1895      1398      1633      1893
 -1      6726    3    0    1
 -2      1895      1660      1425      1893
 -1      6727    3    0    1
 -2      1398      1895      1425      1893
 -1      6728    3    0    1
 -2      1086      1093      1398      1938
 -1      6729    3    0    1
 -2      1086      1087      1093      1938
 -1      6730    3    0    1
 -2      1354      1606      1889      1890
 -1      6731    3    0    1
 -2      1787      1788      1402      1354
 -1      6732    3    0    1
 -2      1787      1402      1813      1354
 -1      6733    3    0    1
 -2      1893      1919      1411      1384
 -1      6734    3    0    1
 -2      1610      1100      1398      1890
 -1      6735    3    0    1
 -2      1893      1398      1633      1890
 -1      6736    3    0    1
 -2      1610      1398      1893      1890
 -1      6737    3    0    1
 -2      1610      1791      1788      1384
 -1      6738    3    0    1
 -2      1354      1814      1916      1384
 -1      6739    3    0    1
 -2      1354      1916      1606      1890
 -1      6740    3    0    1
 -2      1606      1916      1633      1890
 -1      6741    3    0    1
 -2      1583      1100      1610      1890
 -1      6742    3    0    1
 -2      1370      1100      1583      1890
 -1      6743    3    0    1
 -2      1893      1610      1890      1384
 -1      6744    3    0    1
 -2      1890      1610      1788      1384
 -1      6745    3    0    1
 -2      1890      1916      1633      1384
 -1      6746    3    0    1
 -2      1633      1893      1890      1384
 -1      6747    3    0    1
 -2      1893      1633      1919      1384
 -1      6748    3    0    1
 -2      1919      1633      1916      1384
 -1      6749    3    0    1
 -2       784      1516      1486      2014
 -1      6750    3    0    1
 -2      1452      1072      1079      1982
 -1      6751    3    0    1
 -2      1084       209      1439      1091
 -1      6752    3    0    1
 -2      1636      1411      1893      1894
 -1      6753    3    0    1
 -2      1893      1425      1636      1894
 -1      6754    3    0    1
 -2      1894      1425      1636      1982
 -1      6755    3    0    1
 -2      1663      1795      1792      1438
 -1      6756    3    0    1
 -2      1438      1923      1920      1688
 -1      6757    3    0    1
 -2      1804       380      1704       381
 -1      6758    3    0    1
 -2      1792      1818      1411      1438
 -1      6759    3    0    1
 -2      1818      1920      1411      1438
 -1      6760    3    0    1
 -2       838      1495       843       837
 -1      6761    3    0    1
 -2      1897      1663      1795      1692
 -1      6762    3    0    1
 -2      1650      1623      1067      1983
 -1      6763    3    0    1
 -2      1066      1067      1663      1692
 -1      6764    3    0    1
 -2      1692      1053      1722      1052
 -1      6765    3    0    1
 -2      1586      1864      1613      1862
 -1      6766    3    0    1
 -2      1897      1795      1465      1692
 -1      6767    3    0    1
 -2      1465      1795      1796      1692
 -1      6768    3    0    1
 -2      1720      1858      1375       768
 -1      6769    3    0    1
 -2      1465      1494      1924      1898
 -1      6770    3    0    1
 -2       766      1720      1375       767
 -1      6771    3    0    1
 -2      1465      1924      1718      1898
 -1      6772    3    0    1
 -2      1722      1796      1692      1898
 -1      6773    3    0    1
 -2      1899      1900      1669      1524
 -1      6774    3    0    1
 -2      1897      1438      1894      1688
 -1      6775    3    0    1
 -2      1965      1334      1333      2020
 -1      6776    3    0    1
 -2      1452      1897      1894      1688
 -1      6777    3    0    1
 -2      1601      1556      1864      2012
 -1      6778    3    0    1
 -2       716      1371       723       722
 -1      6779    3    0    1
 -2      1373      1926      1718      1900
 -1      6780    3    0    1
 -2      1495       842       848       843
 -1      6781    3    0    1
 -2      1480      1898      1510      1992
 -1      6782    3    0    1
 -2      1543       977      1572       976
 -1      6783    3    0    1
 -2      2015      1752      2020      1965
 -1      6784    3    0    1
 -2      1452      1071      1072      1065
 -1      6785    3    0    1
 -2      1375      1720       768       767
 -1      6786    3    0    1
 -2       775       768      1720       774
 -1      6787    3    0    1
 -2      1452      1896      1495      1899
 -1      6788    3    0    1
 -2      1897      1718      1923      1688
 -1      6789    3    0    1
 -2      1718      1925      1923      1688
 -1      6790    3    0    1
 -2      1718      1373      1900      1898
 -1      6791    3    0    1
 -2       838      1063      1495      1524
 -1      6792    3    0    1
 -2      1442      1859      1469      2014
 -1      6793    3    0    1
 -2      1545       187       763       188
 -1      6794    3    0    1
 -2      1036      1539      1044      1043
 -1      6795    3    0    1
 -2      1042      1553      1049       203
 -1      6796    3    0    1
 -2      1924      1494      1373      1898
 -1      6797    3    0    1
 -2      1926      1718      1924      1373
 -1      6798    3    0    1
 -2       205      1063       838      1524
 -1      6799    3    0    1
 -2       752      1403       745       753
 -1      6800    3    0    1
 -2      1056      1063       205      1524
 -1      6801    3    0    1
 -2       769       762      1545      1498
 -1      6802    3    0    1
 -2      1050      1900      1480      1524
 -1      6803    3    0    1
 -2        36       251       252      2001
 -1      6804    3    0    1
 -2      1029      1567      1022      1023
 -1      6805    3    0    1
 -2      1016      1022      1567      1023
 -1      6806    3    0    1
 -2       776      1516       770       777
 -1      6807    3    0    1
 -2      1902      1567      1405      1905
 -1      6808    3    0    1
 -2      1902      1428      1567      1905
 -1      6809    3    0    1
 -2      1722      1044      1045      1377
 -1      6810    3    0    1
 -2      1046      1799      1677      1722
 -1      6811    3    0    1
 -2      1862      1527      1403      1861
 -1      6812    3    0    1
 -2      1677      1053      1046      1722
 -1      6813    3    0    1
 -2      1053      1796      1692      1722
 -1      6814    3    0    1
 -2      1859      1486      1516      2014
 -1      6815    3    0    1
 -2      1702      1375      1759      1977
 -1      6816    3    0    1
 -2      1442       783      1486      2014
 -1      6817    3    0    1
 -2      1524       828      1553       827
 -1      6818    3    0    1
 -2      1903      1553      1900      1510
 -1      6819    3    0    1
 -2      1510      1898      1722      1992
 -1      6820    3    0    1
 -2      1706      1039      1032      1377
 -1      6821    3    0    1
 -2      1428      1928      1552      1902
 -1      6822    3    0    1
 -2      1930       810       811      1383
 -1      6823    3    0    1
 -2      1722      1799      1494      1901
 -1      6824    3    0    1
 -2      1799      1523      1494      1901
 -1      6825    3    0    1
 -2      1516       776       770       769
 -1      6826    3    0    1
 -2      1539      1567      1029      1030
 -1      6827    3    0    1
 -2      1552      1800      1405      1902
 -1      6828    3    0    1
 -2      1800      1552      1523      1902
 -1      6829    3    0    1
 -2       784      1486       783      2014
 -1      6830    3    0    1
 -2       260      1931      1905      1986
 -1      6831    3    0    1
 -2      1932       254       255      1986
 -1      6832    3    0    1
 -2      1989      1015      1016      1990
 -1      6833    3    0    1
 -2      1755      1720       780      1690
 -1      6834    3    0    1
 -2       143       197      1009        18
 -1      6835    3    0    1
 -2      1516      1486       999       784
 -1      6836    3    0    1
 -2      1428      1931      1932      1986
 -1      6837    3    0    1
 -2      1905      1931      1428      1986
 -1      6838    3    0    1
 -2       265      1931      1905       260
 -1      6839    3    0    1
 -2       265       261       260      1905
 -1      6840    3    0    1
 -2        40      1019        41       277
 -1      6841    3    0    1
 -2      1375       768       761       767
 -1      6842    3    0    1
 -2      1442      1690      1857      1855
 -1      6843    3    0    1
 -2       788       787       781      1690
 -1      6844    3    0    1
 -2      2047      1994       248      2049
 -1      6845    3    0    1
 -2      1338      1332      1855      1337
 -1      6846    3    0    1
 -2       144       798      1344       797
 -1      6847    3    0    1
 -2       200       818      1581       201
 -1      6848    3    0    1
 -2       979       975       980      1574
 -1      6849    3    0    1
 -2      1859      1001      1484      1000
 -1      6850    3    0    1
 -2      1601       742       741       748
 -1      6851    3    0    1
 -2      1324      1329      1328      1957
 -1      6852    3    0    1
 -2      1514       990      1484       991
 -1      6853    3    0    1
 -2      1572       970       976       971
 -1      6854    3    0    1
 -2      1349      1009      1961       798
 -1      6855    3    0    1
 -2      1274      1280      1367      1281
 -1      6856    3    0    1
 -2       972      1572       976       971
 -1      6857    3    0    1
 -2      1543       975       980       981
 -1      6858    3    0    1
 -2       944       707      1683       179
 -1      6859    3    0    1
 -2       939      1712       935       940
 -1      6860    3    0    1
 -2      1582       654       661      1627
 -1      6861    3    0    1
 -2      1600       662       668       669
 -1      6862    3    0    1
 -2       676      1600       670       677
 -1      6863    3    0    1
 -2      1763      1387      1760      1430
 -1      6864    3    0    1
 -2       924       679      1366       175
 -1      6865    3    0    1
 -2      1867      1556      1613      1864
 -1      6866    3    0    1
 -2      1865      1556      1430      1862
 -1      6867    3    0    1
 -2      1574      1864      1863      1527
 -1      6868    3    0    1
 -2       763      1574       762       755
 -1      6869    3    0    1
 -2       979       186      1574       756
 -1      6870    3    0    1
 -2      1611       712       713      1638
 -1      6871    3    0    1
 -2       719       712       713      1611
 -1      6872    3    0    1
 -2       726      1584      1457      1866
 -1      6873    3    0    1
 -2       177       693      1712       178
 -1      6874    3    0    1
 -2      1734      1593      1364      1836
 -1      6875    3    0    1
 -2      1426       709      1951      1467
 -1      6876    3    0    1
 -2      1664       699       698      1638
 -1      6877    3    0    1
 -2      1600       677      1573      1874
 -1      6878    3    0    1
 -2      1631      1702      1658       765
 -1      6879    3    0    1
 -2       669       675      1600       676
 -1      6880    3    0    1
 -2       678       670       671      1723
 -1      6881    3    0    1
 -2       256      1905       260       261
 -1      6882    3    0    1
 -2      1363      1876      1850      1708
 -1      6883    3    0    1
 -2      1655       728       181       721
 -1      6884    3    0    1
 -2       252       256      1906       251
 -1      6885    3    0    1
 -2      1422      1395      1879       915
 -1      6886    3    0    1
 -2       916       920      1363       921
 -1      6887    3    0    1
 -2       692       693      1712      1993
 -1      6888    3    0    1
 -2      1683       944       179       949
 -1      6889    3    0    1
 -2       684       690       683      1573
 -1      6890    3    0    1
 -2        42       272      1018      1017
 -1      6891    3    0    1
 -2       924      1395       174       919
 -1      6892    3    0    1
 -2       931       932       936      1708
 -1      6893    3    0    1
 -2      1600       670       669       676
 -1      6894    3    0    1
 -2      1687      1744      1743      1551
 -1      6895    3    0    1
 -2       911       915       910      1392
 -1      6896    3    0    1
 -2      1664       692       699      1712
 -1      6897    3    0    1
 -2      1880      1909      1406      1449
 -1      6898    3    0    1
 -2       658      1449       651      1942
 -1      6899    3    0    1
 -2       664       670       663      1723
 -1      6900    3    0    1
 -2      1406       650       657      1937
 -1      6901    3    0    1
 -2      1874      1573      1772      1504
 -1      6902    3    0    1
 -2      1805      1776      1589      1654
 -1      6903    3    0    1
 -2      1631      1702      1754      1658
 -1      6904    3    0    1
 -2      1693      1873       691      1573
 -1      6905    3    0    1
 -2      1772      1770      1580      1551
 -1      6906    3    0    1
 -2      1873      1664      1875      1693
 -1      6907    3    0    1
 -2       173       672       919       174
 -1      6908    3    0    1
 -2      2059      1230      1362      1391
 -1      6909    3    0    1
 -2      1533      1775      1600      1877
 -1      6910    3    0    1
 -2       672       679       671      1395
 -1      6911    3    0    1
 -2      1366      1693      1875      1993
 -1      6912    3    0    1
 -2      1356       213       883       214
 -1      6913    3    0    1
 -2      1525      1772       675      1573
 -1      6914    3    0    1
 -2       699       706       698      1638
 -1      6915    3    0    1
 -2       663      1378       664      1723
 -1      6916    3    0    1
 -2       678       671       679      1395
 -1      6917    3    0    1
 -2      1496      1771       689      1544
 -1      6918    3    0    1
 -2      1874      1693      1876      1723
 -1      6919    3    0    1
 -2      1607      1776      1775      1561
 -1      6920    3    0    1
 -2      1877       663      1378      1627
 -1      6921    3    0    1
 -2       934       929       686       176
 -1      6922    3    0    1
 -2      1544       689       690      1573
 -1      6923    3    0    1
 -2      1395       679      1366       924
 -1      6924    3    0    1
 -2       257       256       261      2078
 -1      6925    3    0    1
 -2      1990      1989      1015      2078
 -1      6926    3    0    1
 -2      1990       257       262      2078
 -1      6927    3    0    1
 -2       692       691       685      1693
 -1      6928    3    0    1
 -2       171       899       904      2077
 -1      6929    3    0    1
 -2       925      1395       924       920
 -1      6930    3    0    1
 -2      1422      1378       657      1937
 -1      6931    3    0    1
 -2       172       665       658      1422
 -1      6932    3    0    1
 -2      1544      1771       689      1573
 -1      6933    3    0    1
 -2       685       684       677      1693
 -1      6934    3    0    1
 -2       670       663      1600       669
 -1      6935    3    0    1
 -2       662      1600       663       669
 -1      6936    3    0    1
 -2      1723      1876      1879      1395
 -1      6937    3    0    1
 -2      1395      1723      1876      1987
 -1      6938    3    0    1
 -2      1874      1533      1848      1504
 -1      6939    3    0    1
 -2       275      2057       274      1827
 -1      6940    3    0    1
 -2      1879      1363      1876      1408
 -1      6941    3    0    1
 -2      1408      1848      1850      1380
 -1      6942    3    0    1
 -2      1693      1875      1876      1366
 -1      6943    3    0    1
 -2       683       677       684      1573
 -1      6944    3    0    1
 -2       226       948       943      1210
 -1      6945    3    0    1
 -2       745      1387       738      1430
 -1      6946    3    0    1
 -2       940      1872      1712      1679
 -1      6947    3    0    1
 -2      1712      1875      1664      1993
 -1      6948    3    0    1
 -2      1872      1664       699      1712
 -1      6949    3    0    1
 -2      1356       213       214      1119
 -1      6950    3    0    1
 -2      1649      1676       604      1808
 -1      6951    3    0    1
 -2       179       714       707      1683
 -1      6952    3    0    1
 -2       706      1872       699       700
 -1      6953    3    0    1
 -2      1395       174       679       175
 -1      6954    3    0    1
 -2      1666      1868      1866      1640
 -1      6955    3    0    1
 -2       713       705       706      1638
 -1      6956    3    0    1
 -2       266       261      1905      1989
 -1      6957    3    0    1
 -2      1434      1478      1312      1305
 -1      6958    3    0    1
 -2      1866      1764      1457      1485
 -1      6959    3    0    1
 -2      1664      1872       699      1638
 -1      6960    3    0    1
 -2      1868      1866      1611      1666
 -1      6961    3    0    1
 -2       711       712      1515       705
 -1      6962    3    0    1
 -2       697       703      1515       704
 -1      6963    3    0    1
 -2      1515       703       711       704
 -1      6964    3    0    1
 -2       698      1515       705       704
 -1      6965    3    0    1
 -2       698       697      1515       704
 -1      6966    3    0    1
 -2        73      1167        72      1991
 -1      6967    3    0    1
 -2       725       726      1457      1485
 -1      6968    3    0    1
 -2      1457       726      1866      1485
 -1      6969    3    0    1
 -2       726       725       718      1485
 -1      6970    3    0    1
 -2      1666      1840      1842      1640
 -1      6971    3    0    1
 -2      1377      1038      1031      1030
 -1      6972    3    0    1
 -2      1524      1553      1900       827
 -1      6973    3    0    1
 -2      1440       710       717      1485
 -1      6974    3    0    1
 -2      1567      1902      1405      1030
 -1      6975    3    0    1
 -2      1902      1539      1377      1030
 -1      6976    3    0    1
 -2      1584       733       726      1457
 -1      6977    3    0    1
 -2      1030      1539      1037      1036
 -1      6978    3    0    1
 -2       261       262       257      2078
 -1      6979    3    0    1
 -2      1556      1865      1430      1947
 -1      6980    3    0    1
 -2      1023      1029      1567      1030
 -1      6981    3    0    1
 -2      1988       262       267      1989
 -1      6982    3    0    1
 -2      1984       257      1990      2078
 -1      6983    3    0    1
 -2       267       262       261      1989
 -1      6984    3    0    1
 -2      1031      1025      1405      1024
 -1      6985    3    0    1
 -2       733       732       726      1457
 -1      6986    3    0    1
 -2      1764      1440       724      1485
 -1      6987    3    0    1
 -2      1989       266       267      2018
 -1      6988    3    0    1
 -2      1906       260      1986       255
 -1      6989    3    0    1
 -2      1866      1420      1764      1485
 -1      6990    3    0    1
 -2       726       732       725      1457
 -1      6991    3    0    1
 -2      1420      1764      1393      1866
 -1      6992    3    0    1
 -2      1868      1655      1611      2002
 -1      6993    3    0    1
 -2      1377      1405      1032      2009
 -1      6994    3    0    1
 -2      1902      1800      1405      1377
 -1      6995    3    0    1
 -2      1539      1901      1902      1377
 -1      6996    3    0    1
 -2      1567      1539      1902      1030
 -1      6997    3    0    1
 -2      1478      1434      1312      1954
 -1      6998    3    0    1
 -2      1452      1072      1663      1065
 -1      6999    3    0    1
 -2      1871      1683      1872      1638
 -1      7000    3    0    1
 -2      1515      1638      1869      1870
 -1      7001    3    0    1
 -2       706      1683       707       713
 -1      7002    3    0    1
 -2      1058      1692      1480      1992
 -1      7003    3    0    1
 -2      1524      1899      1480      2006
 -1      7004    3    0    1
 -2      1544       698      1515      1870
 -1      7005    3    0    1
 -2      1052      1692      1053      1059
 -1      7006    3    0    1
 -2      1692      1060      1053      1059
 -1      7007    3    0    1
 -2      1663      1897      1452      1065
 -1      7008    3    0    1
 -2      1663      1066      1692      1065
 -1      7009    3    0    1
 -2      1692      1897      1663      1065
 -1      7010    3    0    1
 -2      1692      1480      1897      1065
 -1      7011    3    0    1
 -2      1764      1763      1393      1457
 -1      7012    3    0    1
 -2      1059      1692      1066      1065
 -1      7013    3    0    1
 -2      1065      1692      1480      1058
 -1      7014    3    0    1
 -2      1065      1059      1692      1058
 -1      7015    3    0    1
 -2      1051      1058      1480      1992
 -1      7016    3    0    1
 -2      1722      1051      1510      1992
 -1      7017    3    0    1
 -2      1692      1722      1898      1992
 -1      7018    3    0    1
 -2      1052      1051      1722      1992
 -1      7019    3    0    1
 -2      1038      1032      1039      1377
 -1      7020    3    0    1
 -2      1998      2047      1946       249
 -1      7021    3    0    1
 -2      1706      1800      1799      1377
 -1      7022    3    0    1
 -2      1623      1081      1663      1792
 -1      7023    3    0    1
 -2      1764      1414      1763      1457
 -1      7024    3    0    1
 -2       731       724       725      1457
 -1      7025    3    0    1
 -2       717       711       718      1485
 -1      7026    3    0    1
 -2       966       965      1599      1572
 -1      7027    3    0    1
 -2       713      1683       707       714
 -1      7028    3    0    1
 -2      1377      1031      1405      1030
 -1      7029    3    0    1
 -2      1405      1902      1377      1030
 -1      7030    3    0    1
 -2      1405      1031      1023      1030
 -1      7031    3    0    1
 -2      1023      1567      1405      1030
 -1      7032    3    0    1
 -2      1901      1539      1903      1510
 -1      7033    3    0    1
 -2      1510      1553      1900      1050
 -1      7034    3    0    1
 -2      1539      1901      1044      1510
 -1      7035    3    0    1
 -2      1581      1903      1539      1043
 -1      7036    3    0    1
 -2       700       699       693      1712
 -1      7037    3    0    1
 -2      1373      1898      1901      1510
 -1      7038    3    0    1
 -2      1051      1480      1510      1992
 -1      7039    3    0    1
 -2      1051      1044      1722      1510
 -1      7040    3    0    1
 -2      1044      1901      1722      1510
 -1      7041    3    0    1
 -2      1901      1898      1722      1510
 -1      7042    3    0    1
 -2       178       700      1712       939
 -1      7043    3    0    1
 -2      1058      1051      1480      1057
 -1      7044    3    0    1
 -2      1064      1065      1480      1057
 -1      7045    3    0    1
 -2       728       720       721      1655
 -1      7046    3    0    1
 -2      1056       205       204      1524
 -1      7047    3    0    1
 -2       720       714       721      1655
 -1      7048    3    0    1
 -2      1544      1664      1870      1873
 -1      7049    3    0    1
 -2       179       714      1683       180
 -1      7050    3    0    1
 -2      1872      1875      1664      1712
 -1      7051    3    0    1
 -2      1393      1457      1865      1866
 -1      7052    3    0    1
 -2      1611       714       713       720
 -1      7053    3    0    1
 -2      1524      1480      1057      2006
 -1      7054    3    0    1
 -2      1693      1664      1875      1993
 -1      7055    3    0    1
 -2      1510      1900      1480      1050
 -1      7056    3    0    1
 -2      1057      1051      1480      1050
 -1      7057    3    0    1
 -2      1480      1051      1510      1050
 -1      7058    3    0    1
 -2      1836      1613      1586      1838
 -1      7059    3    0    1
 -2       671      1395       665       672
 -1      7060    3    0    1
 -2       180       721       714      1655
 -1      7061    3    0    1
 -2      1871      1652      1683       950
 -1      7062    3    0    1
 -2       950      1652      1683       945
 -1      7063    3    0    1
 -2      1601       735       964      1628
 -1      7064    3    0    1
 -2       724       730       723      1414
 -1      7065    3    0    1
 -2      1864      1586      1613      1838
 -1      7066    3    0    1
 -2       727       728       734      1628
 -1      7067    3    0    1
 -2      1695      1871      1666      1845
 -1      7068    3    0    1
 -2       969      1601       964       965
 -1      7069    3    0    1
 -2      1611       714       720      1655
 -1      7070    3    0    1
 -2      1611       714      1655      1999
 -1      7071    3    0    1
 -2      1611       714      1999       713
 -1      7072    3    0    1
 -2      1900      1669      1718      1899
 -1      7073    3    0    1
 -2       713       712       705      1638
 -1      7074    3    0    1
 -2      1611      1655      1871      1999
 -1      7075    3    0    1
 -2       965      1867      1599      1572
 -1      7076    3    0    1
 -2      1664      1873      1875      1350
 -1      7077    3    0    1
 -2       735       741       734      1601
 -1      7078    3    0    1
 -2       742       741       735      1601
 -1      7079    3    0    1
 -2       848       207      1070       206
 -1      7080    3    0    1
 -2       842       848       847      1495
 -1      7081    3    0    1
 -2      1764       724      1414      1457
 -1      7082    3    0    1
 -2      1515       712      1485      1996
 -1      7083    3    0    1
 -2      1070       206      1495       843
 -1      7084    3    0    1
 -2      1071      1063      1064      2006
 -1      7085    3    0    1
 -2      1804       380       381       376
 -1      7086    3    0    1
 -2       847       848      1466      1495
 -1      7087    3    0    1
 -2      1070      1077       848      1495
 -1      7088    3    0    1
 -2       848      1077      1466      1495
 -1      7089    3    0    1
 -2      1516      1545       769       770
 -1      7090    3    0    1
 -2      1070      1078      1077      1495
 -1      7091    3    0    1
 -2      1545      1516       769      1860
 -1      7092    3    0    1
 -2      1071      1078      1070      1495
 -1      7093    3    0    1
 -2      1049       204      1524      1056
 -1      7094    3    0    1
 -2      1864      1863      1543      1574
 -1      7095    3    0    1
 -2      1042      1043      1581      1035
 -1      7096    3    0    1
 -2      1035      1029      1539      2005
 -1      7097    3    0    1
 -2      1608      1567      1029      2005
 -1      7098    3    0    1
 -2      1904      1539      1567      2005
 -1      7099    3    0    1
 -2      1586      1863      1864      1527
 -1      7100    3    0    1
 -2       204      1049       828       203
 -1      7101    3    0    1
 -2      1669      1925      1718      1899
 -1      7102    3    0    1
 -2      1897      1480      1718      1899
 -1      7103    3    0    1
 -2      1480      1900      1718      1899
 -1      7104    3    0    1
 -2      1452      1480      1897      1899
 -1      7105    3    0    1
 -2      1056      1049      1050      1524
 -1      7106    3    0    1
 -2      1553      1043      1581      1042
 -1      7107    3    0    1
 -2      1043      1553      1581      1903
 -1      7108    3    0    1
 -2       204       205       838      1524
 -1      7109    3    0    1
 -2       848      1070      1495       843
 -1      7110    3    0    1
 -2      1070       848       206       843
 -1      7111    3    0    1
 -2      1262      1565      1593      1263
 -1      7112    3    0    1
 -2      1495       206       205       843
 -1      7113    3    0    1
 -2      1495       205       838       843
 -1      7114    3    0    1
 -2      1584       726       727      1611
 -1      7115    3    0    1
 -2       203      1042      1553       202
 -1      7116    3    0    1
 -2      1181      1187      1472      1188
 -1      7117    3    0    1
 -2       807       808       813      1608
 -1      7118    3    0    1
 -2      1655       180       954       949
 -1      7119    3    0    1
 -2       180       714      1683       949
 -1      7120    3    0    1
 -2      1567      1029      1022      1608
 -1      7121    3    0    1
 -2       817      1581       823       822
 -1      7122    3    0    1
 -2       823      1581      1553       822
 -1      7123    3    0    1
 -2       181       180       954      1655
 -1      7124    3    0    1
 -2      1553       203       202       823
 -1      7125    3    0    1
 -2      1042      1581      1553       823
 -1      7126    3    0    1
 -2       724       730      1414       731
 -1      7127    3    0    1
 -2      1353       820      1929      1698
 -1      7128    3    0    1
 -2       727       734       733      1584
 -1      7129    3    0    1
 -2       817       821      1353       822
 -1      7130    3    0    1
 -2       202      1035      1042       823
 -1      7131    3    0    1
 -2       698       706       705      1638
 -1      7132    3    0    1
 -2      1581      1042      1035       823
 -1      7133    3    0    1
 -2      1638      1664      1872      1870
 -1      7134    3    0    1
 -2      1353       815       821       816
 -1      7135    3    0    1
 -2       823       202      1035       201
 -1      7136    3    0    1
 -2       734       727      1628      1584
 -1      7137    3    0    1
 -2       824       156       155       546
 -1      7138    3    0    1
 -2       925       929       924      1366
 -1      7139    3    0    1
 -2       713      1611      1638      1999
 -1      7140    3    0    1
 -2       727      1611      1655      2002
 -1      7141    3    0    1
 -2      1652      1683      1872      1871
 -1      7142    3    0    1
 -2      1871      1655      1868      1625
 -1      7143    3    0    1
 -2       718       711       719      1485
 -1      7144    3    0    1
 -2       712       719      1485      1611
 -1      7145    3    0    1
 -2       201      1028      1581       200
 -1      7146    3    0    1
 -2      1581      1028       813       200
 -1      7147    3    0    1
 -2      1467       710      1440      1944
 -1      7148    3    0    1
 -2       705       712      1515      1638
 -1      7149    3    0    1
 -2       740      1556      1430      1947
 -1      7150    3    0    1
 -2      1984        45      1015      1990
 -1      7151    3    0    1
 -2       812      1353       811      1904
 -1      7152    3    0    1
 -2      1567      1539      1029      2005
 -1      7153    3    0    1
 -2       990       994      1516       995
 -1      7154    3    0    1
 -2      1871      1638      1611      1999
 -1      7155    3    0    1
 -2       256       255      1906       251
 -1      7156    3    0    1
 -2       713       706      1683      1638
 -1      7157    3    0    1
 -2      1515      1485      1869      1996
 -1      7158    3    0    1
 -2      1843      1647      1674      2000
 -1      7159    3    0    1
 -2      1485      1767      1515      1869
 -1      7160    3    0    1
 -2      1840      1420      1866      1666
 -1      7161    3    0    1
 -2      1420      1767      1485      1869
 -1      7162    3    0    1
 -2       964      1601      1628       965
 -1      7163    3    0    1
 -2       727      1584      1611      2002
 -1      7164    3    0    1
 -2      1611      1584      1868      2002
 -1      7165    3    0    1
 -2       919       665       672       173
 -1      7166    3    0    1
 -2      1860      1859      1484      1516
 -1      7167    3    0    1
 -2      1275      1276      1537      1943
 -1      7168    3    0    1
 -2       965      1599      1628       960
 -1      7169    3    0    1
 -2       959      1628      1655       960
 -1      7170    3    0    1
 -2      1599      1868      1628       960
 -1      7171    3    0    1
 -2      1865      1584      1867      1640
 -1      7172    3    0    1
 -2      1640      1867      1613      1841
 -1      7173    3    0    1
 -2      1842      1868      1666      1640
 -1      7174    3    0    1
 -2      1836      1593      1364      1839
 -1      7175    3    0    1
 -2       740       733       734      1556
 -1      7176    3    0    1
 -2      1467       695      1426       702
 -1      7177    3    0    1
 -2       741       740       734      1556
 -1      7178    3    0    1
 -2      1382        60       318        59
 -1      7179    3    0    1
 -2       264       260      1931       265
 -1      7180    3    0    1
 -2       795      1965      2015      2020
 -1      7181    3    0    1
 -2      1299      1597      1461      1292
 -1      7182    3    0    1
 -2      1628      1868      1867      1584
 -1      7183    3    0    1
 -2      1867       734      1628      1584
 -1      7184    3    0    1
 -2      1556       733       734      1584
 -1      7185    3    0    1
 -2       734      1867      1556      1584
 -1      7186    3    0    1
 -2      1865      1763      1393      1364
 -1      7187    3    0    1
 -2      1457      1763      1393      1865
 -1      7188    3    0    1
 -2      1457      1430      1763      1865
 -1      7189    3    0    1
 -2      1543      1863      1586      1837
 -1      7190    3    0    1
 -2      1763      1761      1436      1409
 -1      7191    3    0    1
 -2      1581       812      1608      1904
 -1      7192    3    0    1
 -2      1613      1865      1364      1862
 -1      7193    3    0    1
 -2      1760      1709      1364      1862
 -1      7194    3    0    1
 -2       808       803      1014      1608
 -1      7195    3    0    1
 -2      1263      1734      1593      1549
 -1      7196    3    0    1
 -2      1537      1276      1565      1943
 -1      7197    3    0    1
 -2       198       252       803         6
 -1      7198    3    0    1
 -2      1868      1842      1599      1640
 -1      7199    3    0    1
 -2      1584      1868      1867      1640
 -1      7200    3    0    1
 -2      1869      1447      1515      1870
 -1      7201    3    0    1
 -2      1430      1403      1760      1862
 -1      7202    3    0    1
 -2      1836      1379      1593      1839
 -1      7203    3    0    1
 -2      1709      1734      1760      1364
 -1      7204    3    0    1
 -2      1865      1556       733      1947
 -1      7205    3    0    1
 -2      1457      1584       733      1865
 -1      7206    3    0    1
 -2       740      1430       739      1947
 -1      7207    3    0    1
 -2      1608      1906      1567      1904
 -1      7208    3    0    1
 -2      1022      1021      1014      1608
 -1      7209    3    0    1
 -2      1556       740       733      1947
 -1      7210    3    0    1
 -2       808      1014      1021      1608
 -1      7211    3    0    1
 -2        44        45       262      1990
 -1      7212    3    0    1
 -2      1022      1029      1021      1608
 -1      7213    3    0    1
 -2       733      1457      1865      1947
 -1      7214    3    0    1
 -2      1529      1831      1653      1832
 -1      7215    3    0    1
 -2       816      1353       812       817
 -1      7216    3    0    1
 -2       812      1353      1581       817
 -1      7217    3    0    1
 -2      1865      1430      1763      1364
 -1      7218    3    0    1
 -2      1760      1763      1430      1364
 -1      7219    3    0    1
 -2      1035       823       201       818
 -1      7220    3    0    1
 -2      1581      1035       201       818
 -1      7221    3    0    1
 -2      1035      1581       823       818
 -1      7222    3    0    1
 -2       807       802      1906      1383
 -1      7223    3    0    1
 -2       805      1932       800      1383
 -1      7224    3    0    1
 -2        37       800        38      1998
 -1      7225    3    0    1
 -2      1903      1581      1539      1904
 -1      7226    3    0    1
 -2      1608       802       803      2001
 -1      7227    3    0    1
 -2        35       252       803        36
 -1      7228    3    0    1
 -2       719       713       720      1611
 -1      7229    3    0    1
 -2       718       724       717      1485
 -1      7230    3    0    1
 -2      1440      1764      1767      1485
 -1      7231    3    0    1
 -2      1485      1440       710      1944
 -1      7232    3    0    1
 -2      1655      1683      1871      1999
 -1      7233    3    0    1
 -2      1767      1764      1420      1485
 -1      7234    3    0    1
 -2      1708      1875      1876      1380
 -1      7235    3    0    1
 -2      1906       251       250      2016
 -1      7236    3    0    1
 -2      1771      1768      1522      1474
 -1      7237    3    0    1
 -2      1178      1184      1177      1388
 -1      7238    3    0    1
 -2      1358      1847      1504      1745
 -1      7239    3    0    1
 -2      1870      1544      1873      1474
 -1      7240    3    0    1
 -2      1515      1447      1768      1870
 -1      7241    3    0    1
 -2       726       720       727      1611
 -1      7242    3    0    1
 -2      1866      1584      1868      1611
 -1      7243    3    0    1
 -2      1906      1022      1014      1608
 -1      7244    3    0    1
 -2      1906       802      1608      2001
 -1      7245    3    0    1
 -2      1932       250      1998      2016
 -1      7246    3    0    1
 -2       801      1383      1998      2016
 -1      7247    3    0    1
 -2       726       719       720      1611
 -1      7248    3    0    1
 -2      1866       726      1584      1611
 -1      7249    3    0    1
 -2       719       726      1485      1611
 -1      7250    3    0    1
 -2      1485       726      1866      1611
 -1      7251    3    0    1
 -2       714       713      1683      1999
 -1      7252    3    0    1
 -2      1226      1647      1433      2000
 -1      7253    3    0    1
 -2      1843      1420      1840      1666
 -1      7254    3    0    1
 -2      1647      1843      1840      1433
 -1      7255    3    0    1
 -2       698      1664      1638      1870
 -1      7256    3    0    1
 -2      1695      1870      1350      1844
 -1      7257    3    0    1
 -2      1866      1485      1611      1869
 -1      7258    3    0    1
 -2      1485      1866      1420      1869
 -1      7259    3    0    1
 -2      1869      1485      1611      1996
 -1      7260    3    0    1
 -2      1485       712      1611      1996
 -1      7261    3    0    1
 -2      1870      1869      1447      1695
 -1      7262    3    0    1
 -2      1872      1652      1871      1695
 -1      7263    3    0    1
 -2      1844      1695      1843      1460
 -1      7264    3    0    1
 -2       958       962       957      1477
 -1      7265    3    0    1
 -2       705       698      1638      1870
 -1      7266    3    0    1
 -2      1515       705      1638      1870
 -1      7267    3    0    1
 -2      1515       698       705      1870
 -1      7268    3    0    1
 -2      1449       905       904       910
 -1      7269    3    0    1
 -2      1876      1723      1879      1408
 -1      7270    3    0    1
 -2      1883      1645      1672       902
 -1      7271    3    0    1
 -2       916       920       915      1363
 -1      7272    3    0    1
 -2       677       678       685      1693
 -1      7273    3    0    1
 -2      1380      1848      1847      1504
 -1      7274    3    0    1
 -2       677      1693      1573      1874
 -1      7275    3    0    1
 -2      1873       691      1664      1693
 -1      7276    3    0    1
 -2       254      1932       255       250
 -1      7277    3    0    1
 -2       254       249      1932       250
 -1      7278    3    0    1
 -2      1873      1771      1544      1573
 -1      7279    3    0    1
 -2      1408      1876      1874      1380
 -1      7280    3    0    1
 -2       644       643       636      1968
 -1      7281    3    0    1
 -2      1771      1772      1525      1573
 -1      7282    3    0    1
 -2      1525       682       689      1573
 -1      7283    3    0    1
 -2       689      1771      1525      1573
 -1      7284    3    0    1
 -2       690       696      1544       697
 -1      7285    3    0    1
 -2      1408      1874      1848      1380
 -1      7286    3    0    1
 -2      1573      1693      1873      1874
 -1      7287    3    0    1
 -2      1533      1851      1749      1561
 -1      7288    3    0    1
 -2      1874      1533      1877      1408
 -1      7289    3    0    1
 -2      1776      1805      1609      1654
 -1      7290    3    0    1
 -2      1573      1873      1771      1504
 -1      7291    3    0    1
 -2      1177      1184      1851      1388
 -1      7292    3    0    1
 -2      1573      1772      1600      1874
 -1      7293    3    0    1
 -2      1600      1772      1533      1874
 -1      7294    3    0    1
 -2      1870      1447      1768      1474
 -1      7295    3    0    1
 -2      1522      1743      1659      1740
 -1      7296    3    0    1
 -2       812      1581       818       817
 -1      7297    3    0    1
 -2      1768      1544      1870      1474
 -1      7298    3    0    1
 -2      1544      1768      1771      1474
 -1      7299    3    0    1
 -2      1353       812      1581      1904
 -1      7300    3    0    1
 -2      1600       663      1877      1627
 -1      7301    3    0    1
 -2      1600       662       663      1627
 -1      7302    3    0    1
 -2      1426       709      1467       702
 -1      7303    3    0    1
 -2       663       670      1600      1877
 -1      7304    3    0    1
 -2      1877       663       670      1723
 -1      7305    3    0    1
 -2      1874       677      1693      1723
 -1      7306    3    0    1
 -2       823      1553       828       822
 -1      7307    3    0    1
 -2       663      1877      1378      1723
 -1      7308    3    0    1
 -2      1353      1903      1581       817
 -1      7309    3    0    1
 -2      1903      1553       822      1698
 -1      7310    3    0    1
 -2       826       831      1669       827
 -1      7311    3    0    1
 -2      1553      1903      1900      1698
 -1      7312    3    0    1
 -2      1553      1581      1903       822
 -1      7313    3    0    1
 -2       802       807      1906      1608
 -1      7314    3    0    1
 -2       802       808       807      1608
 -1      7315    3    0    1
 -2      1028       200      1021      1608
 -1      7316    3    0    1
 -2       200      1028       813      1608
 -1      7317    3    0    1
 -2       808       200       813      1608
 -1      7318    3    0    1
 -2       808      1021       199      1608
 -1      7319    3    0    1
 -2       199       200       808      1608
 -1      7320    3    0    1
 -2       200       199      1021      1608
 -1      7321    3    0    1
 -2      1589      1907      1805      1654
 -1      7322    3    0    1
 -2      1654      1627      1776      1878
 -1      7323    3    0    1
 -2      1406      1378       656      1878
 -1      7324    3    0    1
 -2       822      1553       828       827
 -1      7325    3    0    1
 -2      1627       655       656      1654
 -1      7326    3    0    1
 -2       655       649       656      1654
 -1      7327    3    0    1
 -2      1904      1581      1539      2005
 -1      7328    3    0    1
 -2      1028      1035      1581      2005
 -1      7329    3    0    1
 -2      1608      1029      1028      2005
 -1      7330    3    0    1
 -2      1608      1028      1581      2005
 -1      7331    3    0    1
 -2      1608      1581      1904      2005
 -1      7332    3    0    1
 -2      1904      1930      1353      1383
 -1      7333    3    0    1
 -2      1930       811      1353      1383
 -1      7334    3    0    1
 -2       807       811       806      1383
 -1      7335    3    0    1
 -2       811       812      1904      1383
 -1      7336    3    0    1
 -2       811       807       812      1383
 -1      7337    3    0    1
 -2      1904       812      1608      1383
 -1      7338    3    0    1
 -2      1608       812       807      1383
 -1      7339    3    0    1
 -2      1904      1608      1906      1383
 -1      7340    3    0    1
 -2      1608       807      1906      1383
 -1      7341    3    0    1
 -2      1355       820       825      1698
 -1      7342    3    0    1
 -2      1926       825      1669      1698
 -1      7343    3    0    1
 -2       826      1669       825      1698
 -1      7344    3    0    1
 -2      1524       833       827       832
 -1      7345    3    0    1
 -2      1900      1926      1669      1698
 -1      7346    3    0    1
 -2      1495      1063      1071      2006
 -1      7347    3    0    1
 -2      1899      1524      1495      2006
 -1      7348    3    0    1
 -2      1064      1480      1452      2006
 -1      7349    3    0    1
 -2      1524      1063      1495      2006
 -1      7350    3    0    1
 -2      1693       677       678      1723
 -1      7351    3    0    1
 -2      1524       838       833       832
 -1      7352    3    0    1
 -2      1698       826      1669       827
 -1      7353    3    0    1
 -2       677       670       678      1723
 -1      7354    3    0    1
 -2       843      1495       842       837
 -1      7355    3    0    1
 -2      1874      1600       677      1723
 -1      7356    3    0    1
 -2       677      1600       670      1723
 -1      7357    3    0    1
 -2      1877       670      1600      1723
 -1      7358    3    0    1
 -2      1877      1600      1874      1723
 -1      7359    3    0    1
 -2      1907      1881      1491      1462
 -1      7360    3    0    1
 -2       924      1395       679       175
 -1      7361    3    0    1
 -2      1878      1378      1877      1435
 -1      7362    3    0    1
 -2       827       831      1669       832
 -1      7363    3    0    1
 -2       827      1669      1900       832
 -1      7364    3    0    1
 -2      1900      1524       827       832
 -1      7365    3    0    1
 -2      1524      1900      1669       832
 -1      7366    3    0    1
 -2       664      1378       657      1422
 -1      7367    3    0    1
 -2      1642       835       840       836
 -1      7368    3    0    1
 -2      1642       840       841       836
 -1      7369    3    0    1
 -2      1669      1524       832       837
 -1      7370    3    0    1
 -2      1669      1899      1524       837
 -1      7371    3    0    1
 -2       832       831      1669       836
 -1      7372    3    0    1
 -2       837      1899      1642       836
 -1      7373    3    0    1
 -2       837      1669      1899       836
 -1      7374    3    0    1
 -2      1899      1669      1642       836
 -1      7375    3    0    1
 -2      1642      1669      1925       836
 -1      7376    3    0    1
 -2      1669       835      1925       836
 -1      7377    3    0    1
 -2       835      1642      1925       836
 -1      7378    3    0    1
 -2      1723      1877      1378      1879
 -1      7379    3    0    1
 -2      1406      1654      1907      1878
 -1      7380    3    0    1
 -2      1654      1589      1907      1878
 -1      7381    3    0    1
 -2      1854      1619      1853      1577
 -1      7382    3    0    1
 -2      1907      1406      1878      1462
 -1      7383    3    0    1
 -2      1406      1907      1909      1462
 -1      7384    3    0    1
 -2       901       897      1446       896
 -1      7385    3    0    1
 -2      1909      1406      1462      1880
 -1      7386    3    0    1
 -2      1592      1850      1363      1853
 -1      7387    3    0    1
 -2      1856      1339      1966      1855
 -1      7388    3    0    1
 -2      1878      1589      1907      1462
 -1      7389    3    0    1
 -2      1881      1907      1589      1462
 -1      7390    3    0    1
 -2      1154      1645      1672      2036
 -1      7391    3    0    1
 -2      1462      1406      1878      1880
 -1      7392    3    0    1
 -2      1878      1406      1378      1880
 -1      7393    3    0    1
 -2      1851      1877      1533      1408
 -1      7394    3    0    1
 -2      1879      1877      1378      1435
 -1      7395    3    0    1
 -2      1723      1693      1876      1987
 -1      7396    3    0    1
 -2      1879      1378       664      1422
 -1      7397    3    0    1
 -2      1876      1363      1850      1408
 -1      7398    3    0    1
 -2      1187      1502      1180      1181
 -1      7399    3    0    1
 -2      1180      1174      1502      1173
 -1      7400    3    0    1
 -2       221       918       220      1619
 -1      7401    3    0    1
 -2       917      1619      1592      1853
 -1      7402    3    0    1
 -2       678      1693      1723      1987
 -1      7403    3    0    1
 -2      1942       651       171      2077
 -1      7404    3    0    1
 -2       940       944      1683       945
 -1      7405    3    0    1
 -2       685      1693      1366      1993
 -1      7406    3    0    1
 -2      1712      1664       692      1993
 -1      7407    3    0    1
 -2      1395       678      1723      1987
 -1      7408    3    0    1
 -2       685       692      1693      1993
 -1      7409    3    0    1
 -2       658       664       657      1422
 -1      7410    3    0    1
 -2      1449       658       651      1937
 -1      7411    3    0    1
 -2       658       909       171       172
 -1      7412    3    0    1
 -2      1385       154       819       814
 -1      7413    3    0    1
 -2       915      1422      1395       914
 -1      7414    3    0    1
 -2       917      1363       922       921
 -1      7415    3    0    1
 -2      1853       917      1619      1392
 -1      7416    3    0    1
 -2      1395      1363      1879       920
 -1      7417    3    0    1
 -2       658       909      1422      1449
 -1      7418    3    0    1
 -2       900      1476      1909      1449
 -1      7419    3    0    1
 -2       900       899      1476      1449
 -1      7420    3    0    1
 -2      1909       905       900      1449
 -1      7421    3    0    1
 -2       899       900       905      1449
 -1      7422    3    0    1
 -2      1619       912      1645      1854
 -1      7423    3    0    1
 -2      1165      1171      1164      1441
 -1      7424    3    0    1
 -2      1449       904       909       910
 -1      7425    3    0    1
 -2       665      1395      1422       914
 -1      7426    3    0    1
 -2       915      1879      1363       920
 -1      7427    3    0    1
 -2       931       936       935      1708
 -1      7428    3    0    1
 -2      1363      1850       926      1708
 -1      7429    3    0    1
 -2      1876      1363      1395       925
 -1      7430    3    0    1
 -2      1366      1395       924       925
 -1      7431    3    0    1
 -2      1366      1876      1395       925
 -1      7432    3    0    1
 -2      1683      1712       939       940
 -1      7433    3    0    1
 -2       918       917       912      1619
 -1      7434    3    0    1
 -2      1875       935       936      1708
 -1      7435    3    0    1
 -2       925      1366      1876       930
 -1      7436    3    0    1
 -2       911       915      1392       916
 -1      7437    3    0    1
 -2      1449      1880       905       910
 -1      7438    3    0    1
 -2      1449      1422      1880       910
 -1      7439    3    0    1
 -2      1449       909      1422       910
 -1      7440    3    0    1
 -2      1449      1909       905      1419
 -1      7441    3    0    1
 -2      1449      1880      1909      1419
 -1      7442    3    0    1
 -2       824       156       546       829
 -1      7443    3    0    1
 -2      1880      1449       905      1419
 -1      7444    3    0    1
 -2       910       905       906      1419
 -1      7445    3    0    1
 -2       910      1880       905      1419
 -1      7446    3    0    1
 -2       916       917      1363      1392
 -1      7447    3    0    1
 -2       920      1395       924       919
 -1      7448    3    0    1
 -2       221       923       918      1175
 -1      7449    3    0    1
 -2      1708      1850      1564      1849
 -1      7450    3    0    1
 -2       944      1683       939       940
 -1      7451    3    0    1
 -2       926       930      1708       931
 -1      7452    3    0    1
 -2      1395       924       174       175
 -1      7453    3    0    1
 -2       941      1652       940      1679
 -1      7454    3    0    1
 -2      1712      1875      1366       935
 -1      7455    3    0    1
 -2      1519      1848      1847      1380
 -1      7456    3    0    1
 -2      1652       942      1846      1679
 -1      7457    3    0    1
 -2      1683      1872      1712       940
 -1      7458    3    0    1
 -2       940       936       941      1679
 -1      7459    3    0    1
 -2       930       934      1366       935
 -1      7460    3    0    1
 -2       934       686       693       177
 -1      7461    3    0    1
 -2       942      1652       941      1679
 -1      7462    3    0    1
 -2      1846      1350      1872      1679
 -1      7463    3    0    1
 -2       934       693      1712       177
 -1      7464    3    0    1
 -2      1366      1712       935       934
 -1      7465    3    0    1
 -2      1422       173       665       914
 -1      7466    3    0    1
 -2      1395       672       174       919
 -1      7467    3    0    1
 -2       666       125       124      1511
 -1      7468    3    0    1
 -2       728      1655       181       959
 -1      7469    3    0    1
 -2       183      1601       964       969
 -1      7470    3    0    1
 -2       941       945       940      1652
 -1      7471    3    0    1
 -2       926       930       925      1708
 -1      7472    3    0    1
 -2       941       945      1652       946
 -1      7473    3    0    1
 -2       929       686      1366       934
 -1      7474    3    0    1
 -2       686       693      1366       934
 -1      7475    3    0    1
 -2       686       929      1366       176
 -1      7476    3    0    1
 -2       176       929      1366       175
 -1      7477    3    0    1
 -2       929       924      1366       175
 -1      7478    3    0    1
 -2      1366       686       176       175
 -1      7479    3    0    1
 -2      1366       679       686       175
 -1      7480    3    0    1
 -2       914      1422       173       172
 -1      7481    3    0    1
 -2       909      1422       914       172
 -1      7482    3    0    1
 -2       664       670      1723       671
 -1      7483    3    0    1
 -2       909       658      1422       172
 -1      7484    3    0    1
 -2       686       934       176       177
 -1      7485    3    0    1
 -2       912       917       916      1392
 -1      7486    3    0    1
 -2       231       973      1252       232
 -1      7487    3    0    1
 -2       228       958      1477       229
 -1      7488    3    0    1
 -2       952       956       951      1625
 -1      7489    3    0    1
 -2      1655       714       180       949
 -1      7490    3    0    1
 -2       714      1655      1683       949
 -1      7491    3    0    1
 -2       950       954      1655       955
 -1      7492    3    0    1
 -2      1867      1628      1601       965
 -1      7493    3    0    1
 -2      1674      1460      1212      1844
 -1      7494    3    0    1
 -2       959       964      1628       960
 -1      7495    3    0    1
 -2      1867      1599      1628       965
 -1      7496    3    0    1
 -2       965       969      1601       970
 -1      7497    3    0    1
 -2      1712       700      1683       939
 -1      7498    3    0    1
 -2      1385       154       814       153
 -1      7499    3    0    1
 -2       693       700      1712       178
 -1      7500    3    0    1
 -2       179       180      1683       949
 -1      7501    3    0    1
 -2       960      1868      1655       955
 -1      7502    3    0    1
 -2      1628      1655       728       959
 -1      7503    3    0    1
 -2      1625       952      1652       951
 -1      7504    3    0    1
 -2      1628       735       964       183
 -1      7505    3    0    1
 -2      1628       728       735       183
 -1      7506    3    0    1
 -2       182       964      1628       959
 -1      7507    3    0    1
 -2       964      1628       183       182
 -1      7508    3    0    1
 -2       183      1628       728       182
 -1      7509    3    0    1
 -2      1872      1652      1846      1679
 -1      7510    3    0    1
 -2       179       944       707       178
 -1      7511    3    0    1
 -2      1631      1702       765      1673
 -1      7512    3    0    1
 -2       183      1601       969       184
 -1      7513    3    0    1
 -2       182      1628       728       959
 -1      7514    3    0    1
 -2       182       728       181       959
 -1      7515    3    0    1
 -2       952      1625      1652      1845
 -1      7516    3    0    1
 -2       183      1601       735       964
 -1      7517    3    0    1
 -2      1599       960      1625      1868
 -1      7518    3    0    1
 -2      1009      1349      1961      1959
 -1      7519    3    0    1
 -2      1543       980      1863       985
 -1      7520    3    0    1
 -2      1711      1295      1294      2029
 -1      7521    3    0    1
 -2       956       960       955      1625
 -1      7522    3    0    1
 -2      1864      1867      1601      1572
 -1      7523    3    0    1
 -2      1868      1655      1628       960
 -1      7524    3    0    1
 -2       965       966      1599       960
 -1      7525    3    0    1
 -2      1599       966       961       960
 -1      7526    3    0    1
 -2       952       956      1625       957
 -1      7527    3    0    1
 -2      1683      1655      1871       950
 -1      7528    3    0    1
 -2      1516       989       189       994
 -1      7529    3    0    1
 -2      1845      1460      1846      1507
 -1      7530    3    0    1
 -2       954      1655       949       950
 -1      7531    3    0    1
 -2       957       961      1625       962
 -1      7532    3    0    1
 -2      1350      1875      1872      1679
 -1      7533    3    0    1
 -2       942       946      1652       947
 -1      7534    3    0    1
 -2      1712       177       178       939
 -1      7535    3    0    1
 -2      1712       934       177       939
 -1      7536    3    0    1
 -2       226       948      1210       227
 -1      7537    3    0    1
 -2       940      1872      1652       945
 -1      7538    3    0    1
 -2       940      1683      1872       945
 -1      7539    3    0    1
 -2      1683      1652      1872       945
 -1      7540    3    0    1
 -2      1625      1871      1652      1845
 -1      7541    3    0    1
 -2      1666      1433      1843      1845
 -1      7542    3    0    1
 -2      1652       946       950       951
 -1      7543    3    0    1
 -2      1543       975      1864      1574
 -1      7544    3    0    1
 -2      1572      1867      1599      1841
 -1      7545    3    0    1
 -2      1838      1613      1572      1841
 -1      7546    3    0    1
 -2      1601      1867       965       970
 -1      7547    3    0    1
 -2       974       186       185      1574
 -1      7548    3    0    1
 -2       982      1396      1543       977
 -1      7549    3    0    1
 -2      1864       975      1601      1574
 -1      7550    3    0    1
 -2      1601       969       184       974
 -1      7551    3    0    1
 -2      1349      1856      1348      1343
 -1      7552    3    0    1
 -2      1309      1301      1302      2030
 -1      7553    3    0    1
 -2       769      1860      1516      1469
 -1      7554    3    0    1
 -2      1838      1379      1423      2027
 -1      7555    3    0    1
 -2      1309      1345      2030      1340
 -1      7556    3    0    1
 -2       795      1339       796       146
 -1      7557    3    0    1
 -2       189       784       777      1516
 -1      7558    3    0    1
 -2      1637      1682      1833      1830
 -1      7559    3    0    1
 -2       984       979      1574       763
 -1      7560    3    0    1
 -2       143       197      1349      1009
 -1      7561    3    0    1
 -2      1332      1829      1726      2017
 -1      7562    3    0    1
 -2      1508      1478      1831      1729
 -1      7563    3    0    1
 -2      1005      1456      1011      2023
 -1      7564    3    0    1
 -2       787       793       786      1646
 -1      7565    3    0    1
 -2      1556      1601       741       748
 -1      7566    3    0    1
 -2       782      1720       781       775
 -1      7567    3    0    1
 -2      1861      1863      1498      1558
 -1      7568    3    0    1
 -2       983       987       982      1396
 -1      7569    3    0    1
 -2       975       970      1601       974
 -1      7570    3    0    1
 -2       970       969      1601       974
 -1      7571    3    0    1
 -2      1665      1289      1281      1288
 -1      7572    3    0    1
 -2       787       793      1646       794
 -1      7573    3    0    1
 -2       992       996       991      1484
 -1      7574    3    0    1
 -2      1831      1637      1665      1833
 -1      7575    3    0    1
 -2      1855      1342      1343      1338
 -1      7576    3    0    1
 -2      1637      1831      1500      1833
 -1      7577    3    0    1
 -2       762      1545      1574       763
 -1      7578    3    0    1
 -2      1000      1486      1005      1004
 -1      7579    3    0    1
 -2      1486      1009      1005      1004
 -1      7580    3    0    1
 -2      1347       194      1346      2025
 -1      7581    3    0    1
 -2      1484       995       990      1860
 -1      7582    3    0    1
 -2      1545       762      1574      1863
 -1      7583    3    0    1
 -2       997      1834      1484       992
 -1      7584    3    0    1
 -2      1545       984      1574       763
 -1      7585    3    0    1
 -2      1574       186       185       756
 -1      7586    3    0    1
 -2       983       987      1396       988
 -1      7587    3    0    1
 -2       186       979       763       756
 -1      7588    3    0    1
 -2      1752      2015      2020      1690
 -1      7589    3    0    1
 -2      1556      1867      1601      1864
 -1      7590    3    0    1
 -2       186       974       979      1574
 -1      7591    3    0    1
 -2       184      1601       974       185
 -1      7592    3    0    1
 -2       743      1716       737      1953
 -1      7593    3    0    1
 -2       748      1601       742       749
 -1      7594    3    0    1
 -2      1273       983      1396       988
 -1      7595    3    0    1
 -2      1543       976       975       981
 -1      7596    3    0    1
 -2      1004      1009       192       798
 -1      7597    3    0    1
 -2      1339       796      1344      1966
 -1      7598    3    0    1
 -2      1855      1342      1338      1337
 -1      7599    3    0    1
 -2       796       144      1344       797
 -1      7600    3    0    1
 -2      1004       191       791       798
 -1      7601    3    0    1
 -2       494      1316        98      2055
 -1      7602    3    0    1
 -2       196      1009      1010      1959
 -1      7603    3    0    1
 -2      1001      1006      1000      1456
 -1      7604    3    0    1
 -2      1856      1349      1344      1343
 -1      7605    3    0    1
 -2      1974      1340      1309      2030
 -1      7606    3    0    1
 -2      1591      1518      1563       601
 -1      7607    3    0    1
 -2       145       796      1344      1339
 -1      7608    3    0    1
 -2      1752      1328      1332      1333
 -1      7609    3    0    1
 -2      1857      1859      1442      1500
 -1      7610    3    0    1
 -2      1855      1442      1856      1500
 -1      7611    3    0    1
 -2      1858      1857      1653      1529
 -1      7612    3    0    1
 -2      1008      1301      1682       239
 -1      7613    3    0    1
 -2      1860      1484       995      1516
 -1      7614    3    0    1
 -2      1349       196      1348      1959
 -1      7615    3    0    1
 -2      1856      1010      1005      1486
 -1      7616    3    0    1
 -2      1010      1009      1005      1486
 -1      7617    3    0    1
 -2       189       784      1516       190
 -1      7618    3    0    1
 -2      1486       791       790       798
 -1      7619    3    0    1
 -2      1484      1001       995      1000
 -1      7620    3    0    1
 -2      1516       995       999      1000
 -1      7621    3    0    1
 -2       999      1486      1000      1004
 -1      7622    3    0    1
 -2      1456      1006      1005      1011
 -1      7623    3    0    1
 -2      1500      1859      1856      1456
 -1      7624    3    0    1
 -2       196      1348      1010       195
 -1      7625    3    0    1
 -2      1367       993       988       992
 -1      7626    3    0    1
 -2       993      1367      1711       992
 -1      7627    3    0    1
 -2      1267      1724      1274      1396
 -1      7628    3    0    1
 -2       975      1543       980      1574
 -1      7629    3    0    1
 -2       755       763      1574       756
 -1      7630    3    0    1
 -2       780      1646      1755      1690
 -1      7631    3    0    1
 -2      1690      1720       782      2019
 -1      7632    3    0    1
 -2       944       700       178       939
 -1      7633    3    0    1
 -2      1861      1498      1858      1558
 -1      7634    3    0    1
 -2       770       763      1545       769
 -1      7635    3    0    1
 -2       990      1484      1860      1514
 -1      7636    3    0    1
 -2      1836      1835      1565      1724
 -1      7637    3    0    1
 -2      1469      1859      1857      1529
 -1      7638    3    0    1
 -2      1396      1367      1274      1273
 -1      7639    3    0    1
 -2      1558      1863      1860      1514
 -1      7640    3    0    1
 -2      1759      1375      1756      1680
 -1      7641    3    0    1
 -2       985       980      1863      1574
 -1      7642    3    0    1
 -2       995       994      1516       999
 -1      7643    3    0    1
 -2       984       980       985      1574
 -1      7644    3    0    1
 -2       741      1556       748       747
 -1      7645    3    0    1
 -2      1543      1586      1864      1838
 -1      7646    3    0    1
 -2       975       976      1864      1572
 -1      7647    3    0    1
 -2      1601       975       974      1574
 -1      7648    3    0    1
 -2       976       975      1864      1543
 -1      7649    3    0    1
 -2      1860      1545       990      1514
 -1      7650    3    0    1
 -2      1545      1863       985      1514
 -1      7651    3    0    1
 -2      1860      1863      1545      1514
 -1      7652    3    0    1
 -2       748      1556      1601      2012
 -1      7653    3    0    1
 -2       187       984      1545       763
 -1      7654    3    0    1
 -2       755       762       761      1527
 -1      7655    3    0    1
 -2       990       994       989      1516
 -1      7656    3    0    1
 -2       985       984      1574      1545
 -1      7657    3    0    1
 -2      1863       985      1574      1545
 -1      7658    3    0    1
 -2      1545      1860       990      1516
 -1      7659    3    0    1
 -2      1860       995       990      1516
 -1      7660    3    0    1
 -2      1545       990       989      1516
 -1      7661    3    0    1
 -2       992       996      1484       997
 -1      7662    3    0    1
 -2      1516       189       190       999
 -1      7663    3    0    1
 -2       994       189      1516       999
 -1      7664    3    0    1
 -2      1516      1859      1484      1000
 -1      7665    3    0    1
 -2      1516      1484       995      1000
 -1      7666    3    0    1
 -2      1486      1516       999      1000
 -1      7667    3    0    1
 -2      1486      1859      1516      1000
 -1      7668    3    0    1
 -2       989      1545      1516       770
 -1      7669    3    0    1
 -2       763      1545       188       770
 -1      7670    3    0    1
 -2      1545       989       188       770
 -1      7671    3    0    1
 -2      1403      1430       746       747
 -1      7672    3    0    1
 -2      1498       761       762      1527
 -1      7673    3    0    1
 -2       763       979      1574       756
 -1      7674    3    0    1
 -2      1498       762      1863      1527
 -1      7675    3    0    1
 -2       755      1574       762      1527
 -1      7676    3    0    1
 -2      1861      1858      1375      1680
 -1      7677    3    0    1
 -2       795      1965      2020      1334
 -1      7678    3    0    1
 -2      1430       745      1403       746
 -1      7679    3    0    1
 -2       759       765      1702       766
 -1      7680    3    0    1
 -2       738       745      1430       746
 -1      7681    3    0    1
 -2      1556       741       740       747
 -1      7682    3    0    1
 -2       185      1574       756       749
 -1      7683    3    0    1
 -2       743       737       744      1953
 -1      7684    3    0    1
 -2      1527      1556       748      2012
 -1      7685    3    0    1
 -2       974      1601      1574       749
 -1      7686    3    0    1
 -2       185       974      1574       749
 -1      7687    3    0    1
 -2       185      1601       974       749
 -1      7688    3    0    1
 -2      1574       748      1527       755
 -1      7689    3    0    1
 -2      1601      1864      1574      2012
 -1      7690    3    0    1
 -2       748      1574      1527      2012
 -1      7691    3    0    1
 -2       984       187      1545       188
 -1      7692    3    0    1
 -2       989       984      1545       188
 -1      7693    3    0    1
 -2      2025      1011      1456      2023
 -1      7694    3    0    1
 -2      1498      1858      1375      1861
 -1      7695    3    0    1
 -2       768      1375       761      1498
 -1      7696    3    0    1
 -2       782       789      1690      1442
 -1      7697    3    0    1
 -2      1469      1516       776      2014
 -1      7698    3    0    1
 -2      1752      1755      1646      1690
 -1      7699    3    0    1
 -2      1655       181       959       954
 -1      7700    3    0    1
 -2       183      1601       184       735
 -1      7701    3    0    1
 -2       791       190      1486       784
 -1      7702    3    0    1
 -2       190      1516       999       784
 -1      7703    3    0    1
 -2       192       191      1004       798
 -1      7704    3    0    1
 -2       999       190      1486      1004
 -1      7705    3    0    1
 -2      1486       190       191      1004
 -1      7706    3    0    1
 -2       143       798      1344       144
 -1      7707    3    0    1
 -2       191      1486      1004       791
 -1      7708    3    0    1
 -2       791      1486      1004       798
 -1      7709    3    0    1
 -2       196      1349      1009      1959
 -1      7710    3    0    1
 -2      1282      1665      1508      1289
 -1      7711    3    0    1
 -2      1348       196      1010      1959
 -1      7712    3    0    1
 -2      1665      1282      1508      1832
 -1      7713    3    0    1
 -2      1493       284      1801      2058
 -1      7714    3    0    1
 -2      1009       798      1349       143
 -1      7715    3    0    1
 -2      1855      1690      1857      1626
 -1      7716    3    0    1
 -2      1859      1516      1469      2014
 -1      7717    3    0    1
 -2      1516      1860      1859      1469
 -1      7718    3    0    1
 -2       783      1442      1469      2014
 -1      7719    3    0    1
 -2       783      1486       790      1442
 -1      7720    3    0    1
 -2      1486       791       784       783
 -1      7721    3    0    1
 -2       791      1486       790       783
 -1      7722    3    0    1
 -2       789       790       796      1442
 -1      7723    3    0    1
 -2      1339      1333      1855      1338
 -1      7724    3    0    1
 -2      1855      1442      1690      2020
 -1      7725    3    0    1
 -2      1349      1856      1344      1961
 -1      7726    3    0    1
 -2      1294      1637      2029      1295
 -1      7727    3    0    1
 -2      1859      1856      1486      1442
 -1      7728    3    0    1
 -2      1442       789      1690      2020
 -1      7729    3    0    1
 -2       780       787      1646      1690
 -1      7730    3    0    1
 -2      1967      1965      1957      2015
 -1      7731    3    0    1
 -2       485      1368      1713      1727
 -1      7732    3    0    1
 -2      1859      1860      1484      1529
 -1      7733    3    0    1
 -2       790      1486       798      1961
 -1      7734    3    0    1
 -2      1328      1334      1333      1965
 -1      7735    3    0    1
 -2       796       790       797      1442
 -1      7736    3    0    1
 -2       789       788       781      1690
 -1      7737    3    0    1
 -2      1720       782       781      1690
 -1      7738    3    0    1
 -2      1321      1726      1725      1970
 -1      7739    3    0    1
 -2       789       795       788      1690
 -1      7740    3    0    1
 -2      1333      1339      1855      2020
 -1      7741    3    0    1
 -2       716      1371       722      1399
 -1      7742    3    0    1
 -2      1858      1469      1857      1529
 -1      7743    3    0    1
 -2       769       776       768      1469
 -1      7744    3    0    1
 -2       769       768       762      1498
 -1      7745    3    0    1
 -2       762      1863      1545      1498
 -1      7746    3    0    1
 -2       747      1556       748      1527
 -1      7747    3    0    1
 -2       748       754       747      1527
 -1      7748    3    0    1
 -2       746       745      1403       753
 -1      7749    3    0    1
 -2      1864      1556      1613      1862
 -1      7750    3    0    1
 -2      1862      1709      1586      1861
 -1      7751    3    0    1
 -2       748       754      1527       755
 -1      7752    3    0    1
 -2       759       765       758      1702
 -1      7753    3    0    1
 -2       754      1403       747      1527
 -1      7754    3    0    1
 -2      1498      1375       761      1861
 -1      7755    3    0    1
 -2      1403      1709      1862      1861
 -1      7756    3    0    1
 -2      1403       761      1375      1861
 -1      7757    3    0    1
 -2       761       754      1403       753
 -1      7758    3    0    1
 -2      1556      1527      1864      2012
 -1      7759    3    0    1
 -2       762      1574      1863      1527
 -1      7760    3    0    1
 -2      1403       761       753       760
 -1      7761    3    0    1
 -2      1702       759      1375      1977
 -1      7762    3    0    1
 -2       761      1403      1375       760
 -1      7763    3    0    1
 -2       767      1720       768       774
 -1      7764    3    0    1
 -2      1966      1855      1339      2020
 -1      7765    3    0    1
 -2      1967       794       795      2015
 -1      7766    3    0    1
 -2       789       783       790      1442
 -1      7767    3    0    1
 -2       548       540      1487      2060
 -1      7768    3    0    1
 -2      1857      1442      1855      1500
 -1      7769    3    0    1
 -2       782       783       789      1442
 -1      7770    3    0    1
 -2      1711      1295      2029      1665
 -1      7771    3    0    1
 -2      1486      1859      1442      2014
 -1      7772    3    0    1
 -2       768       776       775      1469
 -1      7773    3    0    1
 -2      1294      1637      1302      1682
 -1      7774    3    0    1
 -2      1856       790      1966      1961
 -1      7775    3    0    1
 -2      1752      1726      1626      2017
 -1      7776    3    0    1
 -2       776       783       782      1469
 -1      7777    3    0    1
 -2       776       782       775      1469
 -1      7778    3    0    1
 -2      1379      1838      1423      1841
 -1      7779    3    0    1
 -2       775       782      1720      1469
 -1      7780    3    0    1
 -2      1690      1755      1720      1857
 -1      7781    3    0    1
 -2       768      1858      1375      1498
 -1      7782    3    0    1
 -2       769      1545      1860      1498
 -1      7783    3    0    1
 -2      1863      1860      1545      1498
 -1      7784    3    0    1
 -2      1860      1858      1469      1498
 -1      7785    3    0    1
 -2      1469       769      1860      1498
 -1      7786    3    0    1
 -2       768       769      1469      1498
 -1      7787    3    0    1
 -2      1469      1858       768      1498
 -1      7788    3    0    1
 -2      1364      1865      1430      1862
 -1      7789    3    0    1
 -2       767       766      1720       774
 -1      7790    3    0    1
 -2       773      1720       766       774
 -1      7791    3    0    1
 -2       774       780      1720       781
 -1      7792    3    0    1
 -2      1864      1586      1527      1862
 -1      7793    3    0    1
 -2      1527      1556      1864      1862
 -1      7794    3    0    1
 -2      1527       747      1556      1862
 -1      7795    3    0    1
 -2      1527      1403       747      1862
 -1      7796    3    0    1
 -2      1430      1556       747      1862
 -1      7797    3    0    1
 -2       747      1403      1430      1862
 -1      7798    3    0    1
 -2      1862      1586      1527      1861
 -1      7799    3    0    1
 -2      1527      1498       761      1861
 -1      7800    3    0    1
 -2      1856       790      1961      1486
 -1      7801    3    0    1
 -2      1856       790      1486      1442
 -1      7802    3    0    1
 -2      1856       790      1442      1966
 -1      7803    3    0    1
 -2      1527      1586      1863      1861
 -1      7804    3    0    1
 -2      1863      1498      1527      1861
 -1      7805    3    0    1
 -2      1861      1586      1863      1558
 -1      7806    3    0    1
 -2      1375      1858      1756      1680
 -1      7807    3    0    1
 -2      1498      1863      1860      1558
 -1      7808    3    0    1
 -2      1498      1860      1858      1558
 -1      7809    3    0    1
 -2      1469       782      1720      2019
 -1      7810    3    0    1
 -2      1857      1469      1720      2019
 -1      7811    3    0    1
 -2      1720      1690      1857      2019
 -1      7812    3    0    1
 -2      1835      1558      1832      1694
 -1      7813    3    0    1
 -2      1469      1720      1858      1857
 -1      7814    3    0    1
 -2      1966       796      1442      2020
 -1      7815    3    0    1
 -2      1966      1442      1855      2020
 -1      7816    3    0    1
 -2      1966      1339       796      2020
 -1      7817    3    0    1
 -2      1752      1957      1965      2015
 -1      7818    3    0    1
 -2       860      1560      1588       861
 -1      7819    3    0    1
 -2       240        22       193      2026
 -1      7820    3    0    1
 -2      1375      1759      1861      1680
 -1      7821    3    0    1
 -2      1858      1861      1558      1680
 -1      7822    3    0    1
 -2      1264      1270      1263      1520
 -1      7823    3    0    1
 -2      1283      1277      1284      1537
 -1      7824    3    0    1
 -2      1756      1680      1653      1730
 -1      7825    3    0    1
 -2      1733      1490      1537      1730
 -1      7826    3    0    1
 -2      1680      1858      1756      1653
 -1      7827    3    0    1
 -2      1756      1858      1720      1653
 -1      7828    3    0    1
 -2      1755      1756      1720      1653
 -1      7829    3    0    1
 -2      1857      1720      1858      1653
 -1      7830    3    0    1
 -2      1857      1755      1720      1653
 -1      7831    3    0    1
 -2      1295      1637      1665      1296
 -1      7832    3    0    1
 -2      1500      1831      1857      1529
 -1      7833    3    0    1
 -2      1752      1646      1957      2015
 -1      7834    3    0    1
 -2      1342      1829      1830      1341
 -1      7835    3    0    1
 -2      1333      1752      1328      1965
 -1      7836    3    0    1
 -2      1294      1637      1295      1302
 -1      7837    3    0    1
 -2      1957      1328      1752      1965
 -1      7838    3    0    1
 -2      2015      1690       795      2020
 -1      7839    3    0    1
 -2       572      1448      1576       579
 -1      7840    3    0    1
 -2      1333      1332      1855      1338
 -1      7841    3    0    1
 -2       246      1309      1335      1340
 -1      7842    3    0    1
 -2      1321      1326      1726      1970
 -1      7843    3    0    1
 -2      1857      1690      1755      1626
 -1      7844    3    0    1
 -2      1653      1831      1857      1626
 -1      7845    3    0    1
 -2       489       494       493      1570
 -1      7846    3    0    1
 -2       977      1543      1572      1838
 -1      7847    3    0    1
 -2      1331      1332      1336      1829
 -1      7848    3    0    1
 -2      1500      1637      1833      1830
 -1      7849    3    0    1
 -2      1342      1829      1341      1337
 -1      7850    3    0    1
 -2        98      1315        99       493
 -1      7851    3    0    1
 -2      1960      1335      1310      1974
 -1      7852    3    0    1
 -2      1831      1653      1857      1529
 -1      7853    3    0    1
 -2      1508      1283      1282      1290
 -1      7854    3    0    1
 -2      1500      1857      1859      1529
 -1      7855    3    0    1
 -2      1726      1330      1331      1325
 -1      7856    3    0    1
 -2      1726      1326      1332      1327
 -1      7857    3    0    1
 -2      1328      1752      1332      1327
 -1      7858    3    0    1
 -2      1332      1752      1726      1327
 -1      7859    3    0    1
 -2       944       700       707       178
 -1      7860    3    0    1
 -2      1337      1332      1855      1829
 -1      7861    3    0    1
 -2      1332      1337      1336      1829
 -1      7862    3    0    1
 -2      1834      1529      1665      1833
 -1      7863    3    0    1
 -2      1859      1500      1529      1833
 -1      7864    3    0    1
 -2      1858      1860      1469      1529
 -1      7865    3    0    1
 -2      1558      1860      1858      1529
 -1      7866    3    0    1
 -2      1508      1831      1653      1729
 -1      7867    3    0    1
 -2      1469      1860      1859      1529
 -1      7868    3    0    1
 -2      1005      1011      1010      2023
 -1      7869    3    0    1
 -2      1005      1856      1486      1456
 -1      7870    3    0    1
 -2      1829      1831      1500      1637
 -1      7871    3    0    1
 -2      1484      1859      1529      1833
 -1      7872    3    0    1
 -2      1529      1500      1831      1833
 -1      7873    3    0    1
 -2      1834      1711      1484      1833
 -1      7874    3    0    1
 -2      1665      1711      1834      1833
 -1      7875    3    0    1
 -2      1484      1529      1834      1833
 -1      7876    3    0    1
 -2      1529      1665      1831      1832
 -1      7877    3    0    1
 -2      1694      1558      1832      1834
 -1      7878    3    0    1
 -2      1858      1558      1529      1832
 -1      7879    3    0    1
 -2      1653      1858      1529      1832
 -1      7880    3    0    1
 -2      1653      1680      1858      1832
 -1      7881    3    0    1
 -2      1558      1858      1680      1832
 -1      7882    3    0    1
 -2      1709      1861      1680      1835
 -1      7883    3    0    1
 -2      1680      1861      1558      1835
 -1      7884    3    0    1
 -2      1558      1861      1586      1835
 -1      7885    3    0    1
 -2      1861      1709      1586      1835
 -1      7886    3    0    1
 -2      1364      1709      1734      1836
 -1      7887    3    0    1
 -2      1732      1451      1409      1735
 -1      7888    3    0    1
 -2      1364      1613      1862      1836
 -1      7889    3    0    1
 -2      1862      1709      1364      1836
 -1      7890    3    0    1
 -2      1709      1862      1586      1836
 -1      7891    3    0    1
 -2      1613      1586      1862      1836
 -1      7892    3    0    1
 -2      1433      1845      1477      2034
 -1      7893    3    0    1
 -2      1838      1586      1724      1837
 -1      7894    3    0    1
 -2      1450      1841      1842      1407
 -1      7895    3    0    1
 -2      1724      1838      1396      2027
 -1      7896    3    0    1
 -2      1613      1839      1640      1841
 -1      7897    3    0    1
 -2      1514      1558      1863      1837
 -1      7898    3    0    1
 -2      1514      1543       985       986
 -1      7899    3    0    1
 -2      1724      1275      1274      1694
 -1      7900    3    0    1
 -2      1835      1537      1565      1943
 -1      7901    3    0    1
 -2      1856      1855      1500      2011
 -1      7902    3    0    1
 -2      1309      1345       247      1308
 -1      7903    3    0    1
 -2      1456      1005      1856      2023
 -1      7904    3    0    1
 -2      1309      1345      1340       247
 -1      7905    3    0    1
 -2      1682      1833      1711      2029
 -1      7906    3    0    1
 -2      1682      1637      1833      2029
 -1      7907    3    0    1
 -2      1000      1859      1001      1456
 -1      7908    3    0    1
 -2      1336      1331      1829      1960
 -1      7909    3    0    1
 -2      1637      1302      1682      2030
 -1      7910    3    0    1
 -2      1680      1756      1351      1730
 -1      7911    3    0    1
 -2      1508      1832      1537      1730
 -1      7912    3    0    1
 -2      1277      1283      1276      1537
 -1      7913    3    0    1
 -2      1276      1282      1537      1283
 -1      7914    3    0    1
 -2      1309      1303      1637      1302
 -1      7915    3    0    1
 -2      1960      1829      1335      1974
 -1      7916    3    0    1
 -2      1690      1752      1755      1626
 -1      7917    3    0    1
 -2      1340      1309      1335      1974
 -1      7918    3    0    1
 -2      1729      1755      1667      1626
 -1      7919    3    0    1
 -2      1832      1653      1680      1730
 -1      7920    3    0    1
 -2      1490      1277      1278      1520
 -1      7921    3    0    1
 -2      1345       247      1308      2026
 -1      7922    3    0    1
 -2      1381      1734      1709      1733
 -1      7923    3    0    1
 -2      1276      1282      1275      1537
 -1      7924    3    0    1
 -2      1537      1835      1565      1733
 -1      7925    3    0    1
 -2      1832      1835      1694      1537
 -1      7926    3    0    1
 -2      1645      1169      2042      1603
 -1      7927    3    0    1
 -2      1832      1680      1835      1537
 -1      7928    3    0    1
 -2      1665      1832      1694      1282
 -1      7929    3    0    1
 -2      1267      1260      1724      2027
 -1      7930    3    0    1
 -2      1477       958       963      1238
 -1      7931    3    0    1
 -2      1262      1255      1593      1254
 -1      7932    3    0    1
 -2      1266       235       234       983
 -1      7933    3    0    1
 -2      1261      1565      1593      1262
 -1      7934    3    0    1
 -2      1268      1269      1565      1261
 -1      7935    3    0    1
 -2      1565      1593      1836      1261
 -1      7936    3    0    1
 -2      1379      1836      1593      1261
 -1      7937    3    0    1
 -2      1565      1724      1268      1261
 -1      7938    3    0    1
 -2      1565      1836      1724      1261
 -1      7939    3    0    1
 -2      1724      1836      1379      1261
 -1      7940    3    0    1
 -2      1734      1593      1565      1263
 -1      7941    3    0    1
 -2        86      1265      1258      1678
 -1      7942    3    0    1
 -2      1478      1508      1831      1296
 -1      7943    3    0    1
 -2      1304      1311      1478      1305
 -1      7944    3    0    1
 -2      1296      1637      1478      1303
 -1      7945    3    0    1
 -2      1282      1508      1290      1289
 -1      7946    3    0    1
 -2      1833      1637      1665      2029
 -1      7947    3    0    1
 -2      1508      1665      1831      1296
 -1      7948    3    0    1
 -2      1831      1637      1478      1296
 -1      7949    3    0    1
 -2      1478      1296      1303      1297
 -1      7950    3    0    1
 -2      1303      1296      1637      1302
 -1      7951    3    0    1
 -2      1296      1295      1637      1302
 -1      7952    3    0    1
 -2      1288      1287      1280      1711
 -1      7953    3    0    1
 -2      1314      1306      1570      1971
 -1      7954    3    0    1
 -2      1310      1309      1335       245
 -1      7955    3    0    1
 -2      1597       474      1624       473
 -1      7956    3    0    1
 -2      1296      1478      1508      1297
 -1      7957    3    0    1
 -2      1342      1829      1855      2011
 -1      7958    3    0    1
 -2      1303      1637      1478      1960
 -1      7959    3    0    1
 -2      1336      1330      1331      1960
 -1      7960    3    0    1
 -2      1960      1637      1829      1974
 -1      7961    3    0    1
 -2      1830      1829      1637      1974
 -1      7962    3    0    1
 -2      1303      1309      1637      1310
 -1      7963    3    0    1
 -2      1330      1335      1310      1960
 -1      7964    3    0    1
 -2      1335      1330      1310       245
 -1      7965    3    0    1
 -2      1311      1330      1312       244
 -1      7966    3    0    1
 -2      1302      1301      1294      1682
 -1      7967    3    0    1
 -2      1484      1001       997       996
 -1      7968    3    0    1
 -2      1830      1637      1682      2030
 -1      7969    3    0    1
 -2       985       990      1545      1514
 -1      7970    3    0    1
 -2      1448       572      1576      2040
 -1      7971    3    0    1
 -2      1013      1308      1301       240
 -1      7972    3    0    1
 -2      1013       193      1345      2026
 -1      7973    3    0    1
 -2      1514      1484      1860      1834
 -1      7974    3    0    1
 -2      1011      1012       194      2025
 -1      7975    3    0    1
 -2       997      1711       998      1002
 -1      7976    3    0    1
 -2      1341      1335      1829      1974
 -1      7977    3    0    1
 -2      1335      1829      1336      1341
 -1      7978    3    0    1
 -2      1263      1269      1262      1565
 -1      7979    3    0    1
 -2      1000      1486      1859      1456
 -1      7980    3    0    1
 -2      1830      1345      1340      2030
 -1      7981    3    0    1
 -2      1281      1274      1694      1367
 -1      7982    3    0    1
 -2      1280      1367      1711       993
 -1      7983    3    0    1
 -2       235      1367       236       993
 -1      7984    3    0    1
 -2      1702      1686      1658       758
 -1      7985    3    0    1
 -2      1423      1838      1396       977
 -1      7986    3    0    1
 -2      1836      1586      1724      1838
 -1      7987    3    0    1
 -2       982      1543       981       977
 -1      7988    3    0    1
 -2      1423      1396       978       977
 -1      7989    3    0    1
 -2      1379      1724      1261      1260
 -1      7990    3    0    1
 -2      1267      1274      1266      1396
 -1      7991    3    0    1
 -2      1263      1269      1565      1270
 -1      7992    3    0    1
 -2      1273      1266      1274      1396
 -1      7993    3    0    1
 -2      1260      1724      1261      1267
 -1      7994    3    0    1
 -2      1261      1724      1268      1267
 -1      7995    3    0    1
 -2      1860      1558      1514      1834
 -1      7996    3    0    1
 -2      1558      1694      1837      1834
 -1      7997    3    0    1
 -2      1367      1280      1273       236
 -1      7998    3    0    1
 -2       236      1367      1280       993
 -1      7999    3    0    1
 -2      1275      1281      1274      1694
 -1      8000    3    0    1
 -2      1694      1367      1837      1834
 -1      8001    3    0    1
 -2      1856      1859      1486      1456
 -1      8002    3    0    1
 -2      1665      1529      1831      1833
 -1      8003    3    0    1
 -2       944       700      1683       707
 -1      8004    3    0    1
 -2      1287      1288      1294      1711
 -1      8005    3    0    1
 -2      1456      1833      1001      1002
 -1      8006    3    0    1
 -2       234      1266       983      1396
 -1      8007    3    0    1
 -2       234      1259      1266      1396
 -1      8008    3    0    1
 -2      1260      1266      1259      2027
 -1      8009    3    0    1
 -2       983      1266      1273      1396
 -1      8010    3    0    1
 -2      1694      1835      1558      1837
 -1      8011    3    0    1
 -2      1253      1260      1259      2027
 -1      8012    3    0    1
 -2      1838      1543      1396       977
 -1      8013    3    0    1
 -2       978      1396       982       977
 -1      8014    3    0    1
 -2       962       957      1842      1625
 -1      8015    3    0    1
 -2      1379      1613      1838      1841
 -1      8016    3    0    1
 -2      1248      1593      1255      1254
 -1      8017    3    0    1
 -2      1423      1259       232       233
 -1      8018    3    0    1
 -2      1572       972      1841       967
 -1      8019    3    0    1
 -2       975      1864      1601      1572
 -1      8020    3    0    1
 -2       970       975      1601      1572
 -1      8021    3    0    1
 -2       944       700       939      1683
 -1      8022    3    0    1
 -2      1864      1543      1838      1572
 -1      8023    3    0    1
 -2      1864       976      1543      1572
 -1      8024    3    0    1
 -2      1613      1864      1838      1572
 -1      8025    3    0    1
 -2      1613      1867      1864      1572
 -1      8026    3    0    1
 -2      1694      1724      1835      1837
 -1      8027    3    0    1
 -2      1863      1543       985      1514
 -1      8028    3    0    1
 -2      1724      1586      1835      1837
 -1      8029    3    0    1
 -2      1586      1558      1835      1837
 -1      8030    3    0    1
 -2      1838      1724      1396      1837
 -1      8031    3    0    1
 -2      1543      1838      1396      1837
 -1      8032    3    0    1
 -2      1702      1686       758      1357
 -1      8033    3    0    1
 -2      1906      1014      2001      1608
 -1      8034    3    0    1
 -2      1345      1013      1308      2030
 -1      8035    3    0    1
 -2      1013      1345      1308      2026
 -1      8036    3    0    1
 -2      1281      1694      1665      1834
 -1      8037    3    0    1
 -2      1694      1281      1367      1834
 -1      8038    3    0    1
 -2      1488       616      1535      2045
 -1      8039    3    0    1
 -2      1488       616      2031      1535
 -1      8040    3    0    1
 -2      1837      1514      1558      1834
 -1      8041    3    0    1
 -2      1367      1514      1837      1834
 -1      8042    3    0    1
 -2      1833      1484      1859      1456
 -1      8043    3    0    1
 -2      1294      1682      1711      2029
 -1      8044    3    0    1
 -2      1637      1295      1665      2029
 -1      8045    3    0    1
 -2      1309      1345      1308      2030
 -1      8046    3    0    1
 -2      1833      1665      1711      2029
 -1      8047    3    0    1
 -2      1637      1309      1302      2030
 -1      8048    3    0    1
 -2      1342      1829      1337      1855
 -1      8049    3    0    1
 -2      1637      1830      1974      2030
 -1      8050    3    0    1
 -2      1974      1309      1637      2030
 -1      8051    3    0    1
 -2      1833      1001      1484      1456
 -1      8052    3    0    1
 -2      1001      1859      1484      1456
 -1      8053    3    0    1
 -2      1012      1008      1682      1007
 -1      8054    3    0    1
 -2      1007      1011      1006      1456
 -1      8055    3    0    1
 -2      1830      1682      1833      1456
 -1      8056    3    0    1
 -2      1833      1500      1830      1456
 -1      8057    3    0    1
 -2      1830      1500      1856      1456
 -1      8058    3    0    1
 -2      1477      1433      1239      2038
 -1      8059    3    0    1
 -2      1349       196      1009       197
 -1      8060    3    0    1
 -2      1830      1342      1346      1347
 -1      8061    3    0    1
 -2      1348      1342      1856      1347
 -1      8062    3    0    1
 -2       239      1013      1008      1301
 -1      8063    3    0    1
 -2       247      1345       193      2026
 -1      8064    3    0    1
 -2       716      1371      1952       723
 -1      8065    3    0    1
 -2      1830      1500      1829      2011
 -1      8066    3    0    1
 -2      1342      1830      1346      1341
 -1      8067    3    0    1
 -2      1906      1022      1608      1567
 -1      8068    3    0    1
 -2      1830      1345      1346      1341
 -1      8069    3    0    1
 -2      1345      1830      1340      1341
 -1      8070    3    0    1
 -2      1856      1830      1456      2023
 -1      8071    3    0    1
 -2       194      1347      1011      2025
 -1      8072    3    0    1
 -2      1711      1003       998      1002
 -1      8073    3    0    1
 -2      1010      1856      1005      2023
 -1      8074    3    0    1
 -2       239      1013      1301       240
 -1      8075    3    0    1
 -2      1682      1007      1003      1002
 -1      8076    3    0    1
 -2      1012      1682      1830      1007
 -1      8077    3    0    1
 -2      1012      1830      1456      1007
 -1      8078    3    0    1
 -2      1456      1830      1682      1007
 -1      8079    3    0    1
 -2       194      1012      1013      2032
 -1      8080    3    0    1
 -2      1301      1309      1308      2030
 -1      8081    3    0    1
 -2      1013      1345       194      2032
 -1      8082    3    0    1
 -2       193      1345       194      1013
 -1      8083    3    0    1
 -2       257        45      1984      1990
 -1      8084    3    0    1
 -2      1308      1013      1301      2030
 -1      8085    3    0    1
 -2      1682      1301      1013      2030
 -1      8086    3    0    1
 -2       240      1308        22      2026
 -1      8087    3    0    1
 -2       247       193        22      2026
 -1      8088    3    0    1
 -2      1974      1830      1340      2030
 -1      8089    3    0    1
 -2      1301      1008      1682      1013
 -1      8090    3    0    1
 -2        44      1015        45      1990
 -1      8091    3    0    1
 -2       247        22      1308      2026
 -1      8092    3    0    1
 -2       993      1711       998       997
 -1      8093    3    0    1
 -2      1682      1456      1007      1002
 -1      8094    3    0    1
 -2      1711      1682      1003      1002
 -1      8095    3    0    1
 -2      1456      1682      1833      1002
 -1      8096    3    0    1
 -2       980      1543       981       986
 -1      8097    3    0    1
 -2       985      1543       980       986
 -1      8098    3    0    1
 -2      1423       972      1572       977
 -1      8099    3    0    1
 -2      1273      1396      1367       988
 -1      8100    3    0    1
 -2      1396       234      1259       233
 -1      8101    3    0    1
 -2      1833      1682      1711      1002
 -1      8102    3    0    1
 -2       996      1484       990       991
 -1      8103    3    0    1
 -2      1711      1287      1280       998
 -1      8104    3    0    1
 -2        91      1300      1293      1597
 -1      8105    3    0    1
 -2      1543       982       981       986
 -1      8106    3    0    1
 -2      1838      1423      1572       977
 -1      8107    3    0    1
 -2      1007      1011      1456      1012
 -1      8108    3    0    1
 -2      1711      1280       993       998
 -1      8109    3    0    1
 -2      1396       982       983       978
 -1      8110    3    0    1
 -2       236       998       993      1280
 -1      8111    3    0    1
 -2       983      1273       235       988
 -1      8112    3    0    1
 -2       235      1273      1367       988
 -1      8113    3    0    1
 -2      1273      1367       236       235
 -1      8114    3    0    1
 -2      1682      1301      1294       238
 -1      8115    3    0    1
 -2        91      1300      1597        92
 -1      8116    3    0    1
 -2       997       993      1711       992
 -1      8117    3    0    1
 -2      1007      1008      1682      1003
 -1      8118    3    0    1
 -2      1543      1514      1837       987
 -1      8119    3    0    1
 -2      1682       239       238      1003
 -1      8120    3    0    1
 -2      1682      1008       239      1003
 -1      8121    3    0    1
 -2       238      1711      1294      1003
 -1      8122    3    0    1
 -2      1294      1682       238      1003
 -1      8123    3    0    1
 -2      1682      1294      1711      1003
 -1      8124    3    0    1
 -2       237      1280      1287       998
 -1      8125    3    0    1
 -2       995      1484       990       996
 -1      8126    3    0    1
 -2       988      1367       992       987
 -1      8127    3    0    1
 -2       236       998      1280       237
 -1      8128    3    0    1
 -2      1514       985       990       991
 -1      8129    3    0    1
 -2       233      1396       234       978
 -1      8130    3    0    1
 -2       981      1543       976       977
 -1      8131    3    0    1
 -2       232      1423       233       978
 -1      8132    3    0    1
 -2       983       234      1396       978
 -1      8133    3    0    1
 -2       233      1423      1259       978
 -1      8134    3    0    1
 -2      1259      1396       233       978
 -1      8135    3    0    1
 -2      1396      1259      1423       978
 -1      8136    3    0    1
 -2      1572       972       976       977
 -1      8137    3    0    1
 -2       971      1572       966       967
 -1      8138    3    0    1
 -2       985       989      1545       990
 -1      8139    3    0    1
 -2      1002      1006      1001      1456
 -1      8140    3    0    1
 -2       237      1287      1711       998
 -1      8141    3    0    1
 -2      1003       238      1711       998
 -1      8142    3    0    1
 -2      1002      1006      1456      1007
 -1      8143    3    0    1
 -2       237      1711       238       998
 -1      8144    3    0    1
 -2      1001      1484       995       996
 -1      8145    3    0    1
 -2      1484      1711       997      1002
 -1      8146    3    0    1
 -2      1001      1484       997      1002
 -1      8147    3    0    1
 -2      1001      1833      1484      1002
 -1      8148    3    0    1
 -2      1833      1711      1484      1002
 -1      8149    3    0    1
 -2       997      1711      1834       992
 -1      8150    3    0    1
 -2      1711      1367      1834       992
 -1      8151    3    0    1
 -2      1837       982      1543       987
 -1      8152    3    0    1
 -2      1514      1367      1837       987
 -1      8153    3    0    1
 -2      1834      1367      1514       992
 -1      8154    3    0    1
 -2      1834      1514      1484       992
 -1      8155    3    0    1
 -2      1484      1514       991       992
 -1      8156    3    0    1
 -2      1837      1396       982       987
 -1      8157    3    0    1
 -2      1367      1396      1837       987
 -1      8158    3    0    1
 -2       992      1367      1514       987
 -1      8159    3    0    1
 -2       985       989       984      1545
 -1      8160    3    0    1
 -2       988      1396      1367       987
 -1      8161    3    0    1
 -2       987       982      1543       986
 -1      8162    3    0    1
 -2       992      1514       991       987
 -1      8163    3    0    1
 -2       987      1514       991       986
 -1      8164    3    0    1
 -2       991      1514       985       986
 -1      8165    3    0    1
 -2      1572       966       965       971
 -1      8166    3    0    1
 -2       965       970      1572       971
 -1      8167    3    0    1
 -2      1450       963       230      1238
 -1      8168    3    0    1
 -2      1695      1652      1871      1845
 -1      8169    3    0    1
 -2       950      1871      1652       951
 -1      8170    3    0    1
 -2       942      1652      1846       947
 -1      8171    3    0    1
 -2      1463      1767      1420      1741
 -1      8172    3    0    1
 -2       947       951      1652       952
 -1      8173    3    0    1
 -2      1254      1620      1247      1248
 -1      8174    3    0    1
 -2      1842      1868      1599      1625
 -1      8175    3    0    1
 -2      1840      1647      1433      1240
 -1      8176    3    0    1
 -2      1507      1536       943      1210
 -1      8177    3    0    1
 -2       953       957      1477       958
 -1      8178    3    0    1
 -2      1254      1620      1593      1839
 -1      8179    3    0    1
 -2      1239      1433      1232      1240
 -1      8180    3    0    1
 -2       957       962      1842      1477
 -1      8181    3    0    1
 -2       962       966      1599       967
 -1      8182    3    0    1
 -2      1423       972       978       973
 -1      8183    3    0    1
 -2       978       232      1423       973
 -1      8184    3    0    1
 -2       979       187       186       763
 -1      8185    3    0    1
 -2      1599       966      1572       967
 -1      8186    3    0    1
 -2      1433      1460      1843      1845
 -1      8187    3    0    1
 -2      1231      1477      1224      2034
 -1      8188    3    0    1
 -2       955       959       954      1655
 -1      8189    3    0    1
 -2      1224      1507       953       228
 -1      8190    3    0    1
 -2      1224       227      1507       228
 -1      8191    3    0    1
 -2      1507       227       948       228
 -1      8192    3    0    1
 -2      1536       942      1846      1507
 -1      8193    3    0    1
 -2      1507      1218      1224      2034
 -1      8194    3    0    1
 -2      1507      1845      1460      2034
 -1      8195    3    0    1
 -2      1841      1839      1640      1407
 -1      8196    3    0    1
 -2      1240      1433      1232      1233
 -1      8197    3    0    1
 -2      1640      1839      1840      1407
 -1      8198    3    0    1
 -2      1356       214       883       888
 -1      8199    3    0    1
 -2      1379      1839      1841      1407
 -1      8200    3    0    1
 -2       962      1599      1842      1450
 -1      8201    3    0    1
 -2      1842      1840      1433      1407
 -1      8202    3    0    1
 -2       967       963       968      1450
 -1      8203    3    0    1
 -2      1842      1477      1450      2038
 -1      8204    3    0    1
 -2      1208      1215      1418      1209
 -1      8205    3    0    1
 -2       979       187       763       984
 -1      8206    3    0    1
 -2      1259      1423       232      1252
 -1      8207    3    0    1
 -2      1226      1460      1433      1225
 -1      8208    3    0    1
 -2      1564       932      1708      1849
 -1      8209    3    0    1
 -2       230       958       229      1238
 -1      8210    3    0    1
 -2      1846      1536      1507      1210
 -1      8211    3    0    1
 -2      1741      1739      1492      1632
 -1      8212    3    0    1
 -2       942       943       948      1507
 -1      8213    3    0    1
 -2       945       949      1683       950
 -1      8214    3    0    1
 -2      1419      1909       900       901
 -1      8215    3    0    1
 -2      1356       215       214       888
 -1      8216    3    0    1
 -2      1356      1133       215       888
 -1      8217    3    0    1
 -2      1701      1133      1356       888
 -1      8218    3    0    1
 -2      1701       215      1133       888
 -1      8219    3    0    1
 -2       922       926      1363       927
 -1      8220    3    0    1
 -2      1564       933      1196       224
 -1      8221    3    0    1
 -2      1849      1350      1846      1679
 -1      8222    3    0    1
 -2      1422      1879      1880      1392
 -1      8223    3    0    1
 -2       915       919       914      1395
 -1      8224    3    0    1
 -2      1672      1155      1154      2036
 -1      8225    3    0    1
 -2       903      1645       908       902
 -1      8226    3    0    1
 -2       224      1564       933       223
 -1      8227    3    0    1
 -2       911       910      1880      1392
 -1      8228    3    0    1
 -2      1489      1849      1846      1536
 -1      8229    3    0    1
 -2      1176      1619      1853      1175
 -1      8230    3    0    1
 -2      1645      1883       907       902
 -1      8231    3    0    1
 -2      1672       217       218      1154
 -1      8232    3    0    1
 -2      2055      1725      1316      1315
 -1      8233    3    0    1
 -2      1446      1884      1473       897
 -1      8234    3    0    1
 -2      1174      1531      1502      2065
 -1      8235    3    0    1
 -2       928       927       922      1592
 -1      8236    3    0    1
 -2       918       923      1592      1175
 -1      8237    3    0    1
 -2      1603      1156      1155      1162
 -1      8238    3    0    1
 -2      1170      1441      1603      1163
 -1      8239    3    0    1
 -2      1166      1172      1165      1400
 -1      8240    3    0    1
 -2      1203       938       933      1564
 -1      8241    3    0    1
 -2      1161       218       908       219
 -1      8242    3    0    1
 -2       935      1875       936      1679
 -1      8243    3    0    1
 -2      1577      1619      1853      1176
 -1      8244    3    0    1
 -2       927       932       931      1708
 -1      8245    3    0    1
 -2       932      1850      1564      1708
 -1      8246    3    0    1
 -2       921       925      1363       926
 -1      8247    3    0    1
 -2       888      1701       215       893
 -1      8248    3    0    1
 -2      1701       216       215       893
 -1      8249    3    0    1
 -2       916       911       912      1392
 -1      8250    3    0    1
 -2       910      1422      1880      1392
 -1      8251    3    0    1
 -2      1850      1363       926       927
 -1      8252    3    0    1
 -2      1185      1191      1184      1388
 -1      8253    3    0    1
 -2       938      1203       933       224
 -1      8254    3    0    1
 -2       938       932       933      1564
 -1      8255    3    0    1
 -2      1519      1564      1850      1849
 -1      8256    3    0    1
 -2       940      1712       935      1679
 -1      8257    3    0    1
 -2      1225      1226      1460      1218
 -1      8258    3    0    1
 -2      1850       927       932      1564
 -1      8259    3    0    1
 -2      1177      1851      1415      1388
 -1      8260    3    0    1
 -2       908      1168      1161       219
 -1      8261    3    0    1
 -2       918       913       220      1619
 -1      8262    3    0    1
 -2       906       910      1419       911
 -1      8263    3    0    1
 -2       925       929      1366       930
 -1      8264    3    0    1
 -2       926       922      1363       921
 -1      8265    3    0    1
 -2       921       917      1363       916
 -1      8266    3    0    1
 -2       221       923      1175       222
 -1      8267    3    0    1
 -2      1592       922       917      1853
 -1      8268    3    0    1
 -2       915       919      1395       920
 -1      8269    3    0    1
 -2      1619       917       912      1392
 -1      8270    3    0    1
 -2      1419       910      1880       911
 -1      8271    3    0    1
 -2       908      1645       913       907
 -1      8272    3    0    1
 -2      1854       912      1645       907
 -1      8273    3    0    1
 -2       927      1850       932      1708
 -1      8274    3    0    1
 -2       926      1850       927      1708
 -1      8275    3    0    1
 -2       926       927       931      1708
 -1      8276    3    0    1
 -2       932       927       933      1564
 -1      8277    3    0    1
 -2       938       225      1203       224
 -1      8278    3    0    1
 -2       927      1850      1363      1592
 -1      8279    3    0    1
 -2      1630      1155      1672      2036
 -1      8280    3    0    1
 -2      1363       922       927      1592
 -1      8281    3    0    1
 -2      1619       918       917      1592
 -1      8282    3    0    1
 -2       222       928       923      1592
 -1      8283    3    0    1
 -2       928       922       923      1592
 -1      8284    3    0    1
 -2       923       917       918      1592
 -1      8285    3    0    1
 -2      1592      1190      1183      1182
 -1      8286    3    0    1
 -2       921       925       920      1363
 -1      8287    3    0    1
 -2      1592      1619       918      1175
 -1      8288    3    0    1
 -2       928       933       927      1564
 -1      8289    3    0    1
 -2      1592       927      1850      1564
 -1      8290    3    0    1
 -2      1592       928       927      1564
 -1      8291    3    0    1
 -2      1850      1592      1564      2041
 -1      8292    3    0    1
 -2      1189       928      1592      1564
 -1      8293    3    0    1
 -2       930       935      1875      1708
 -1      8294    3    0    1
 -2       935       930       931      1708
 -1      8295    3    0    1
 -2      1876       925       930      1708
 -1      8296    3    0    1
 -2       930      1366      1876      1708
 -1      8297    3    0    1
 -2       930      1875      1366      1708
 -1      8298    3    0    1
 -2      1366      1875      1876      1708
 -1      8299    3    0    1
 -2      1392       911       912      1854
 -1      8300    3    0    1
 -2      1392      1419       911      1854
 -1      8301    3    0    1
 -2      1645      1883      1672      2036
 -1      8302    3    0    1
 -2      1854      1392      1880      1435
 -1      8303    3    0    1
 -2      1392      1879      1880      1435
 -1      8304    3    0    1
 -2      1358      1687      1746      1193
 -1      8305    3    0    1
 -2      1880      1419       911      1392
 -1      8306    3    0    1
 -2      1170      1603      1577      1169
 -1      8307    3    0    1
 -2      1619      1853      1392      1854
 -1      8308    3    0    1
 -2       911      1419       912      1854
 -1      8309    3    0    1
 -2        74      1181      1502        75
 -1      8310    3    0    1
 -2      1435      1878      1462      1852
 -1      8311    3    0    1
 -2      1854      1853      1392      1435
 -1      8312    3    0    1
 -2      1854      1462      1603      1852
 -1      8313    3    0    1
 -2       386      1803       391      1675
 -1      8314    3    0    1
 -2      1184      1548      1191      1190
 -1      8315    3    0    1
 -2      1392      1880      1419      1854
 -1      8316    3    0    1
 -2      1880      1462      1419      1854
 -1      8317    3    0    1
 -2      1462      1881      1603      1852
 -1      8318    3    0    1
 -2      1878      1627      1776      1561
 -1      8319    3    0    1
 -2      1589      1881      1462      1852
 -1      8320    3    0    1
 -2      1854      1880      1462      1435
 -1      8321    3    0    1
 -2      1878      1462      1880      1435
 -1      8322    3    0    1
 -2      1415      1851      1852      1561
 -1      8323    3    0    1
 -2      1435      1854      1853      1577
 -1      8324    3    0    1
 -2      1415      1749      1851      1561
 -1      8325    3    0    1
 -2      1435      1851      1877      1561
 -1      8326    3    0    1
 -2      1850      1876      1408      1380
 -1      8327    3    0    1
 -2      1573      1771      1772      1504
 -1      8328    3    0    1
 -2      1853      1592      1850      1548
 -1      8329    3    0    1
 -2      1775      1533      1749      1561
 -1      8330    3    0    1
 -2      1851      1852      1577      1415
 -1      8331    3    0    1
 -2      1693      1874      1876      1380
 -1      8332    3    0    1
 -2      1879      1853      1363      1408
 -1      8333    3    0    1
 -2      1675      1803      1634      1777
 -1      8334    3    0    1
 -2       389      1675       384       385
 -1      8335    3    0    1
 -2       386       381      1704       385
 -1      8336    3    0    1
 -2      1603      1881      1441      1852
 -1      8337    3    0    1
 -2      1400      1173      1372      2065
 -1      8338    3    0    1
 -2      1167      1174      1173      2065
 -1      8339    3    0    1
 -2      1172      1173      1372      1400
 -1      8340    3    0    1
 -2      1881      1156      1603      1441
 -1      8341    3    0    1
 -2      1627      1775      1776      1561
 -1      8342    3    0    1
 -2      1878      1877      1627      1561
 -1      8343    3    0    1
 -2      1851      1435      1877      1408
 -1      8344    3    0    1
 -2      1852      1577      1435      1851
 -1      8345    3    0    1
 -2      1851      1577      1177      1415
 -1      8346    3    0    1
 -2      1171      1178      1177      1415
 -1      8347    3    0    1
 -2      1388      1178      1184      1185
 -1      8348    3    0    1
 -2      1847      1519      1489      1205
 -1      8349    3    0    1
 -2      1548      1853      1577      1851
 -1      8350    3    0    1
 -2      1853      1435      1577      1851
 -1      8351    3    0    1
 -2      1851      1853      1435      1408
 -1      8352    3    0    1
 -2      1848      1548      1850      1519
 -1      8353    3    0    1
 -2      1507       952      1845      1477
 -1      8354    3    0    1
 -2      1211      1205      1489      1204
 -1      8355    3    0    1
 -2      1851      1848      1533      1388
 -1      8356    3    0    1
 -2       937       938       943      1536
 -1      8357    3    0    1
 -2      1519      1849      1847      1489
 -1      8358    3    0    1
 -2      1875      1693      1876      1380
 -1      8359    3    0    1
 -2      1380      1874      1848      1504
 -1      8360    3    0    1
 -2      1873      1874      1380      1504
 -1      8361    3    0    1
 -2      1846      1350      1489      1844
 -1      8362    3    0    1
 -2      1875      1872      1664      1350
 -1      8363    3    0    1
 -2      1474      1768      1522      1742
 -1      8364    3    0    1
 -2      1213      1674      1703      1214
 -1      8365    3    0    1
 -2      1749      1415      1851      1388
 -1      8366    3    0    1
 -2      1190      1184      1548      1183
 -1      8367    3    0    1
 -2      1519      1204      1198      1197
 -1      8368    3    0    1
 -2       227      1224      1507      1217
 -1      8369    3    0    1
 -2      1235      1647      1234      1227
 -1      8370    3    0    1
 -2      1507      1224       953      1477
 -1      8371    3    0    1
 -2      1350      1849      1846      1489
 -1      8372    3    0    1
 -2      1873      1870      1474      1350
 -1      8373    3    0    1
 -2      1850      1848      1519      1380
 -1      8374    3    0    1
 -2      1874      1772      1533      1504
 -1      8375    3    0    1
 -2      1533      1874      1848      1408
 -1      8376    3    0    1
 -2      1848      1851      1533      1408
 -1      8377    3    0    1
 -2      1548      1851      1848      1408
 -1      8378    3    0    1
 -2      1548      1848      1850      1408
 -1      8379    3    0    1
 -2      1851      1548      1853      1408
 -1      8380    3    0    1
 -2      1850      1853      1548      1408
 -1      8381    3    0    1
 -2      1708      1876      1850      1380
 -1      8382    3    0    1
 -2      1849      1708      1850      1380
 -1      8383    3    0    1
 -2      1849      1875      1708      1380
 -1      8384    3    0    1
 -2      1873      1474      1847      1350
 -1      8385    3    0    1
 -2      1849      1519      1847      1380
 -1      8386    3    0    1
 -2      1850      1519      1849      1380
 -1      8387    3    0    1
 -2       935       936       940      1679
 -1      8388    3    0    1
 -2      1350      1847      1849      1489
 -1      8389    3    0    1
 -2      1380      1875      1873      1350
 -1      8390    3    0    1
 -2      1873      1847      1380      1350
 -1      8391    3    0    1
 -2      1380      1849      1875      1350
 -1      8392    3    0    1
 -2      1847      1849      1380      1350
 -1      8393    3    0    1
 -2      1652      1872      1846      1695
 -1      8394    3    0    1
 -2      1869      1638      1871      1695
 -1      8395    3    0    1
 -2      1872      1871      1638      1695
 -1      8396    3    0    1
 -2      1870      1638      1869      1695
 -1      8397    3    0    1
 -2      1872      1638      1870      1695
 -1      8398    3    0    1
 -2      1350      1846      1872      1695
 -1      8399    3    0    1
 -2      1872      1870      1350      1695
 -1      8400    3    0    1
 -2      1200      1687      1358      1193
 -1      8401    3    0    1
 -2      1447      1870      1695      1844
 -1      8402    3    0    1
 -2      1695      1350      1846      1844
 -1      8403    3    0    1
 -2      1742      1447      1492      1741
 -1      8404    3    0    1
 -2      1740      1492      1739      1632
 -1      8405    3    0    1
 -2      1845      1846      1652      1507
 -1      8406    3    0    1
 -2      1489      1350      1847      1844
 -1      8407    3    0    1
 -2      1522      1768      1492      1742
 -1      8408    3    0    1
 -2      1743      1418      1659      1740
 -1      8409    3    0    1
 -2      1869      1420      1447      1843
 -1      8410    3    0    1
 -2      1474      1870      1447      1844
 -1      8411    3    0    1
 -2      1350      1870      1474      1844
 -1      8412    3    0    1
 -2      1350      1474      1847      1844
 -1      8413    3    0    1
 -2      1843      1869      1420      1666
 -1      8414    3    0    1
 -2      1433      1647      1843      2000
 -1      8415    3    0    1
 -2      1358      1205      1847      1703
 -1      8416    3    0    1
 -2      1226      1674      1460      1219
 -1      8417    3    0    1
 -2      1205      1211      1489      1212
 -1      8418    3    0    1
 -2      1433      1843      1840      1666
 -1      8419    3    0    1
 -2      1426       709       708      1951
 -1      8420    3    0    1
 -2       955       960      1868      1625
 -1      8421    3    0    1
 -2      1393      1865      1364      1839
 -1      8422    3    0    1
 -2      1489      1846      1844      1460
 -1      8423    3    0    1
 -2      1845      1842      1433      1477
 -1      8424    3    0    1
 -2      1231      1232      1477      2034
 -1      8425    3    0    1
 -2      1447      1674      1844      1843
 -1      8426    3    0    1
 -2      1695      1447      1844      1843
 -1      8427    3    0    1
 -2      1840      1842      1433      1666
 -1      8428    3    0    1
 -2      1492      1447      1767      1741
 -1      8429    3    0    1
 -2      1420      1843      1840      1647
 -1      8430    3    0    1
 -2      1867      1868      1599      1640
 -1      8431    3    0    1
 -2      1463      1605      1741      1738
 -1      8432    3    0    1
 -2      1420      1767      1447      1741
 -1      8433    3    0    1
 -2      1605      1736      1578      1738
 -1      8434    3    0    1
 -2      1840      1393      1420      1738
 -1      8435    3    0    1
 -2      1393      1763      1436      1737
 -1      8436    3    0    1
 -2      1743      1522      1659      1745
 -1      8437    3    0    1
 -2       958       963       962      1477
 -1      8438    3    0    1
 -2       947      1652      1846      1507
 -1      8439    3    0    1
 -2       948       953       947      1507
 -1      8440    3    0    1
 -2      1674      1647      1226      2000
 -1      8441    3    0    1
 -2      1460      1846      1695      1845
 -1      8442    3    0    1
 -2      1225      1231      1224      2034
 -1      8443    3    0    1
 -2      1666      1843      1695      1845
 -1      8444    3    0    1
 -2       989      1516       189       770
 -1      8445    3    0    1
 -2      1460      1695      1843      1845
 -1      8446    3    0    1
 -2      1869      1866      1420      1666
 -1      8447    3    0    1
 -2      1611      1866      1869      1666
 -1      8448    3    0    1
 -2      1869      1871      1611      1666
 -1      8449    3    0    1
 -2      1234      1647      1240      1233
 -1      8450    3    0    1
 -2      1841      1640      1842      1407
 -1      8451    3    0    1
 -2      1763      1364      1409      1737
 -1      8452    3    0    1
 -2      1423      1838      1572      1841
 -1      8453    3    0    1
 -2      1584      1865      1866      1640
 -1      8454    3    0    1
 -2      1865      1393      1866      1640
 -1      8455    3    0    1
 -2      1866      1840      1666      1640
 -1      8456    3    0    1
 -2      1846      1652      1695      1845
 -1      8457    3    0    1
 -2       706      1872      1638       699
 -1      8458    3    0    1
 -2      1843      1695      1869      1666
 -1      8459    3    0    1
 -2      1871      1869      1695      1666
 -1      8460    3    0    1
 -2       972      1423      1572      1841
 -1      8461    3    0    1
 -2      1839      1865      1613      1640
 -1      8462    3    0    1
 -2      1865      1867      1613      1640
 -1      8463    3    0    1
 -2      1839      1393      1865      1640
 -1      8464    3    0    1
 -2      1839      1840      1393      1640
 -1      8465    3    0    1
 -2      1564      1204      1519      1197
 -1      8466    3    0    1
 -2       231       968       963      1450
 -1      8467    3    0    1
 -2      1407      1840      1433      1240
 -1      8468    3    0    1
 -2       971       972      1572       967
 -1      8469    3    0    1
 -2       973      1423       972       967
 -1      8470    3    0    1
 -2       973       968      1423       967
 -1      8471    3    0    1
 -2      1640      1840      1842      1407
 -1      8472    3    0    1
 -2      1841       972      1423       967
 -1      8473    3    0    1
 -2      1708       936      1849       937
 -1      8474    3    0    1
 -2      1849       932      1708       937
 -1      8475    3    0    1
 -2      1708       932       936       937
 -1      8476    3    0    1
 -2      1849      1564       932       937
 -1      8477    3    0    1
 -2      1564       938       932       937
 -1      8478    3    0    1
 -2       951       956       955      1625
 -1      8479    3    0    1
 -2       951       955       950      1625
 -1      8480    3    0    1
 -2       951       950      1871      1625
 -1      8481    3    0    1
 -2      1655       950       955      1625
 -1      8482    3    0    1
 -2       950      1655      1871      1625
 -1      8483    3    0    1
 -2      1868      1842      1666      1625
 -1      8484    3    0    1
 -2      1666      1871      1868      1625
 -1      8485    3    0    1
 -2       937       942       941      1679
 -1      8486    3    0    1
 -2      1746      1772      1580      1551
 -1      8487    3    0    1
 -2       937       936      1849      1679
 -1      8488    3    0    1
 -2       937       941       936      1679
 -1      8489    3    0    1
 -2      1875      1849      1708      1679
 -1      8490    3    0    1
 -2       936      1708      1849      1679
 -1      8491    3    0    1
 -2       936      1875      1708      1679
 -1      8492    3    0    1
 -2      1625      1666      1871      1845
 -1      8493    3    0    1
 -2      1625      1842      1666      1845
 -1      8494    3    0    1
 -2      1666      1842      1433      1845
 -1      8495    3    0    1
 -2      1846       942       947      1507
 -1      8496    3    0    1
 -2      1477      1842      1433      2038
 -1      8497    3    0    1
 -2      1849       937      1679      1536
 -1      8498    3    0    1
 -2       937      1849      1564      1536
 -1      8499    3    0    1
 -2       937      1564       938      1536
 -1      8500    3    0    1
 -2      1564      1189      1196      2041
 -1      8501    3    0    1
 -2      1564      1203       938      1536
 -1      8502    3    0    1
 -2       225       943       938      1536
 -1      8503    3    0    1
 -2       225       938      1203      1536
 -1      8504    3    0    1
 -2      1652       952      1845      1507
 -1      8505    3    0    1
 -2      1652       947       952      1507
 -1      8506    3    0    1
 -2       228      1477      1224      1231
 -1      8507    3    0    1
 -2       953       952       947      1507
 -1      8508    3    0    1
 -2       228       958       953      1477
 -1      8509    3    0    1
 -2      1845       952      1625      1477
 -1      8510    3    0    1
 -2      1625       952       957      1477
 -1      8511    3    0    1
 -2      1845      1625      1842      1477
 -1      8512    3    0    1
 -2      1625       957      1842      1477
 -1      8513    3    0    1
 -2       230       963       958      1238
 -1      8514    3    0    1
 -2      1841      1599       967      1450
 -1      8515    3    0    1
 -2      1841      1842      1599      1450
 -1      8516    3    0    1
 -2       967       968      1423      1450
 -1      8517    3    0    1
 -2      1423      1841       967      1450
 -1      8518    3    0    1
 -2      1241      1247      1620      1248
 -1      8519    3    0    1
 -2      1256      1262      1255      1593
 -1      8520    3    0    1
 -2       973       232      1423      1252
 -1      8521    3    0    1
 -2       968       973      1423      1252
 -1      8522    3    0    1
 -2      1840      1839      1393      1620
 -1      8523    3    0    1
 -2      1450      1477       963      1238
 -1      8524    3    0    1
 -2      1240      1246      1239      1407
 -1      8525    3    0    1
 -2      1366       678      1395      1987
 -1      8526    3    0    1
 -2      1423       968      1252      1245
 -1      8527    3    0    1
 -2      1450       968      1423      1245
 -1      8528    3    0    1
 -2      1252       968       231      1245
 -1      8529    3    0    1
 -2      1450       231       968      1245
 -1      8530    3    0    1
 -2      1450       230       231      1245
 -1      8531    3    0    1
 -2      1245      1450       230      1238
 -1      8532    3    0    1
 -2      1379      1246      1423      1253
 -1      8533    3    0    1
 -2      1232      1433      1225      1233
 -1      8534    3    0    1
 -2      1738      1840      1393      1620
 -1      8535    3    0    1
 -2      1647      1840      1738      1620
 -1      8536    3    0    1
 -2      1477      1224       953       228
 -1      8537    3    0    1
 -2      1238      1232      1477      1231
 -1      8538    3    0    1
 -2       955       959      1655       960
 -1      8539    3    0    1
 -2      1477      1507      1224      2034
 -1      8540    3    0    1
 -2      1845      1507      1477      2034
 -1      8541    3    0    1
 -2      1238       958       229      1231
 -1      8542    3    0    1
 -2      1238      1477       958      1231
 -1      8543    3    0    1
 -2      1477       229       958      1231
 -1      8544    3    0    1
 -2      1218      1460      1846      1211
 -1      8545    3    0    1
 -2       227      1507       948      1217
 -1      8546    3    0    1
 -2      1647      1235      1228      1227
 -1      8547    3    0    1
 -2      1217      1507       948      1210
 -1      8548    3    0    1
 -2      1507       943       948      1210
 -1      8549    3    0    1
 -2      1218      1225      1224      2034
 -1      8550    3    0    1
 -2       948       227      1217      1210
 -1      8551    3    0    1
 -2       945       949       944      1683
 -1      8552    3    0    1
 -2      1460      1226      1219      1218
 -1      8553    3    0    1
 -2      1846      1489      1536      1211
 -1      8554    3    0    1
 -2      1210      1846      1536      1211
 -1      8555    3    0    1
 -2      1240      1647      1433      1233
 -1      8556    3    0    1
 -2       678      1366      1395       679
 -1      8557    3    0    1
 -2      1252      1423      1245      1246
 -1      8558    3    0    1
 -2      1593      1379      1261      1254
 -1      8559    3    0    1
 -2      1246      1252      1423      1253
 -1      8560    3    0    1
 -2      1256      1262      1593      1263
 -1      8561    3    0    1
 -2      1838      1423      1396      2027
 -1      8562    3    0    1
 -2      1423      1407      1841      1450
 -1      8563    3    0    1
 -2      1423      1407      1450      1246
 -1      8564    3    0    1
 -2      1423      1407      1246      1379
 -1      8565    3    0    1
 -2      1204      1564      1519      2039
 -1      8566    3    0    1
 -2      1423      1407      1379      1841
 -1      8567    3    0    1
 -2      1433      1842      1407      2038
 -1      8568    3    0    1
 -2      1433      1407      1239      2038
 -1      8569    3    0    1
 -2      1240      1246      1407      1247
 -1      8570    3    0    1
 -2      1246      1379      1407      1247
 -1      8571    3    0    1
 -2      1253      1260      1379      1254
 -1      8572    3    0    1
 -2      1261      1379      1260      1254
 -1      8573    3    0    1
 -2      1647      1234      1242      1235
 -1      8574    3    0    1
 -2      1204      1564      1536      1203
 -1      8575    3    0    1
 -2      1737      1393      1839      1620
 -1      8576    3    0    1
 -2      1254      1839      1379      1247
 -1      8577    3    0    1
 -2      1407      1379      1839      1247
 -1      8578    3    0    1
 -2      1253      1259      1252      1423
 -1      8579    3    0    1
 -2      1549      1737      1593      2079
 -1      8580    3    0    1
 -2      1247      1253      1246      1379
 -1      8581    3    0    1
 -2      1235      1242      1605      1236
 -1      8582    3    0    1
 -2      1620      1248      1242      1241
 -1      8583    3    0    1
 -2      1241      1247      1240      1620
 -1      8584    3    0    1
 -2      1507      1460      1846      1218
 -1      8585    3    0    1
 -2      1210      1217      1507      1218
 -1      8586    3    0    1
 -2      1233      1234      1647      1227
 -1      8587    3    0    1
 -2      1433      1226      1225      1233
 -1      8588    3    0    1
 -2      1228      1632      1605      2061
 -1      8589    3    0    1
 -2      1233      1647      1226      1227
 -1      8590    3    0    1
 -2      1647      1674      1226      1227
 -1      8591    3    0    1
 -2      1206      1213      1703      1207
 -1      8592    3    0    1
 -2      1204      1564      1203      1197
 -1      8593    3    0    1
 -2      1474      1447      1768      1742
 -1      8594    3    0    1
 -2      1536      1203      1210      1211
 -1      8595    3    0    1
 -2      1460      1489      1846      1211
 -1      8596    3    0    1
 -2      1254      1620      1248      1593
 -1      8597    3    0    1
 -2      1254      1620      1839      1247
 -1      8598    3    0    1
 -2      1489      1205      1212      1703
 -1      8599    3    0    1
 -2      1447      1474      1844      1742
 -1      8600    3    0    1
 -2      1848      1519      1847      1358
 -1      8601    3    0    1
 -2      1204      1489      1536      2039
 -1      8602    3    0    1
 -2      1489      1519      1849      2039
 -1      8603    3    0    1
 -2       625      1595      1622      1804
 -1      8604    3    0    1
 -2      1204      1519      1489      2039
 -1      8605    3    0    1
 -2      1205      1519      1489      1204
 -1      8606    3    0    1
 -2      1211      1536      1203      1204
 -1      8607    3    0    1
 -2      1211      1489      1536      1204
 -1      8608    3    0    1
 -2      1204      1564      2039      1536
 -1      8609    3    0    1
 -2      1236      2059      1605      1229
 -1      8610    3    0    1
 -2      1844      1489      1460      1212
 -1      8611    3    0    1
 -2      1211      1460      1489      1212
 -1      8612    3    0    1
 -2      1211      1218      1460      1212
 -1      8613    3    0    1
 -2      1219      1460      1218      1212
 -1      8614    3    0    1
 -2      1687      1659      1208      1207
 -1      8615    3    0    1
 -2      1743      1659      1687      1745
 -1      8616    3    0    1
 -2      1745      1522      1659      1742
 -1      8617    3    0    1
 -2      1212      1219      1674      1213
 -1      8618    3    0    1
 -2      1219      1220      1674      1213
 -1      8619    3    0    1
 -2      1745      1358      1847      1703
 -1      8620    3    0    1
 -2      1358      1206      1205      1703
 -1      8621    3    0    1
 -2      1745      1659      1687      1207
 -1      8622    3    0    1
 -2      1743      1594      1769      1551
 -1      8623    3    0    1
 -2      1474      1771      1873      1504
 -1      8624    3    0    1
 -2      1179      1415      1178      1172
 -1      8625    3    0    1
 -2      1388      1746      1717      1193
 -1      8626    3    0    1
 -2      1207      1687      1358      1200
 -1      8627    3    0    1
 -2      1190      1196      1189      2041
 -1      8628    3    0    1
 -2      1849      1519      1564      2039
 -1      8629    3    0    1
 -2      1204      1205      1519      1198
 -1      8630    3    0    1
 -2      1197      1191      1519      1190
 -1      8631    3    0    1
 -2      1536      1489      1849      2039
 -1      8632    3    0    1
 -2      1190      1548      1592      1183
 -1      8633    3    0    1
 -2      1746      1749      1533      1388
 -1      8634    3    0    1
 -2      1851      1533      1749      1388
 -1      8635    3    0    1
 -2      1519      1548      1850      2041
 -1      8636    3    0    1
 -2      1744      1717      1580      1746
 -1      8637    3    0    1
 -2      1164      1441      1170      1163
 -1      8638    3    0    1
 -2      1184      1851      1548      1177
 -1      8639    3    0    1
 -2      1577      1548      1851      1177
 -1      8640    3    0    1
 -2      1441      1603      1852      1170
 -1      8641    3    0    1
 -2      1877      1533      1775      1561
 -1      8642    3    0    1
 -2      1852      1603      1577      1170
 -1      8643    3    0    1
 -2      1589      1776      1634      1750
 -1      8644    3    0    1
 -2      1198      1191      1519      1197
 -1      8645    3    0    1
 -2      1619       221       918      1175
 -1      8646    3    0    1
 -2      1592      1190      1189      2041
 -1      8647    3    0    1
 -2      1519      1197      1190      2041
 -1      8648    3    0    1
 -2      1592      1189      1564      2041
 -1      8649    3    0    1
 -2      1548      1519      1190      2041
 -1      8650    3    0    1
 -2      1196      1197      1564      2041
 -1      8651    3    0    1
 -2      1564      1519      1850      2041
 -1      8652    3    0    1
 -2      1441      1164      1156      1163
 -1      8653    3    0    1
 -2      1577      1177      1170      1176
 -1      8654    3    0    1
 -2      1548      1853      1592      1183
 -1      8655    3    0    1
 -2      1192      1198      1358      1199
 -1      8656    3    0    1
 -2       933      1203      1564      1196
 -1      8657    3    0    1
 -2      1197      1564      1203      1196
 -1      8658    3    0    1
 -2      1192      1198      1191      1358
 -1      8659    3    0    1
 -2      1177      1548      1183      1176
 -1      8660    3    0    1
 -2      1177      1577      1548      1176
 -1      8661    3    0    1
 -2      1183      1548      1853      1176
 -1      8662    3    0    1
 -2      1853      1548      1577      1176
 -1      8663    3    0    1
 -2      1176      1577      1619      1169
 -1      8664    3    0    1
 -2      1603      1854      1577      2042
 -1      8665    3    0    1
 -2      1672      1657      1148      1630
 -1      8666    3    0    1
 -2      1169      1577      1619      2042
 -1      8667    3    0    1
 -2      1169      1603      1577      2042
 -1      8668    3    0    1
 -2      1672      1657      1701      1148
 -1      8669    3    0    1
 -2      1603      1645      1854      2042
 -1      8670    3    0    1
 -2      1619       913       220      1168
 -1      8671    3    0    1
 -2      1619      1645       913      1168
 -1      8672    3    0    1
 -2      1185      1191      1388      1192
 -1      8673    3    0    1
 -2       220      1619      1168      1175
 -1      8674    3    0    1
 -2       220       221      1619      1175
 -1      8675    3    0    1
 -2      1190      1592      1189      1182
 -1      8676    3    0    1
 -2      1257      1735      1251      1678
 -1      8677    3    0    1
 -2      1285      1624      1597      1728
 -1      8678    3    0    1
 -2      1624      1285      1597      1286
 -1      8679    3    0    1
 -2      1175       923      1592      1182
 -1      8680    3    0    1
 -2      1175       222       923      1182
 -1      8681    3    0    1
 -2       923       222      1592      1182
 -1      8682    3    0    1
 -2      1203      1536      1210       226
 -1      8683    3    0    1
 -2      1203       225      1536       226
 -1      8684    3    0    1
 -2      1210      1536       943       226
 -1      8685    3    0    1
 -2      1536       225       943       226
 -1      8686    3    0    1
 -2      1196       933      1203       224
 -1      8687    3    0    1
 -2      1564      1189       928       223
 -1      8688    3    0    1
 -2      1196      1564       224       223
 -1      8689    3    0    1
 -2      1564       928       933       223
 -1      8690    3    0    1
 -2      1189      1564      1196       223
 -1      8691    3    0    1
 -2       928      1189      1592       223
 -1      8692    3    0    1
 -2      1592       222       928       223
 -1      8693    3    0    1
 -2      1419       905       906       901
 -1      8694    3    0    1
 -2       907      1883      1419       902
 -1      8695    3    0    1
 -2      1173      1502      1372      2065
 -1      8696    3    0    1
 -2      1854      1419      1645      1883
 -1      8697    3    0    1
 -2      1206      1212      1703      1213
 -1      8698    3    0    1
 -2      1127      1135      1134      1685
 -1      8699    3    0    1
 -2      1187      1747      1717      1180
 -1      8700    3    0    1
 -2      1165      1172      1441      1400
 -1      8701    3    0    1
 -2      1632      1674      1228      1221
 -1      8702    3    0    1
 -2      1264      1263      1257      1549
 -1      8703    3    0    1
 -2      1296      1508      1290      1297
 -1      8704    3    0    1
 -2      1971      1314      1313      2044
 -1      8705    3    0    1
 -2      1304      1478      1303      1297
 -1      8706    3    0    1
 -2        99        12       493      2048
 -1      8707    3    0    1
 -2      1726      1434      1478      1954
 -1      8708    3    0    1
 -2      1305      1478      1298      1434
 -1      8709    3    0    1
 -2      1257      1735      1678      1549
 -1      8710    3    0    1
 -2      1321      1725      1322      1970
 -1      8711    3    0    1
 -2      1381      1351      1757      1731
 -1      8712    3    0    1
 -2      1250      1578      1549      1249
 -1      8713    3    0    1
 -2       463      1272      1651      1279
 -1      8714    3    0    1
 -2      1306      1312      1305      1434
 -1      8715    3    0    1
 -2      1730      1653      1696      1729
 -1      8716    3    0    1
 -2        90        89      1624      1279
 -1      8717    3    0    1
 -2      1597      1727       484      1570
 -1      8718    3    0    1
 -2      1725      1726      1667      1970
 -1      8719    3    0    1
 -2       263      1939       501      1997
 -1      8720    3    0    1
 -2      1313      1954      1971      2044
 -1      8721    3    0    1
 -2      1537      1284      1508      1730
 -1      8722    3    0    1
 -2       478       474      1597       473
 -1      8723    3    0    1
 -2      1461      1284      1285      1490
 -1      8724    3    0    1
 -2      1520      1734      1263      1549
 -1      8725    3    0    1
 -2      1229      1223      1391      1222
 -1      8726    3    0    1
 -2      1624       473       468        90
 -1      8727    3    0    1
 -2      1381      1734      1732      1409
 -1      8728    3    0    1
 -2      1265      1651       458        87
 -1      8729    3    0    1
 -2      1511       660      1540       659
 -1      8730    3    0    1
 -2      1313      1312      1306      1434
 -1      8731    3    0    1
 -2      1727      1696      1667      1729
 -1      8732    3    0    1
 -2      1490      1285      1728      1624
 -1      8733    3    0    1
 -2        90      1624       473      1286
 -1      8734    3    0    1
 -2      1549      1264      1520      1964
 -1      8735    3    0    1
 -2       488      1314        93      1307
 -1      8736    3    0    1
 -2        93      1570       488      1307
 -1      8737    3    0    1
 -2      1730      1351      1728      1696
 -1      8738    3    0    1
 -2      1282      1694      1275      1537
 -1      8739    3    0    1
 -2      1667      1753      1755      1696
 -1      8740    3    0    1
 -2      1318        96      1956      2052
 -1      8741    3    0    1
 -2      1312      1313       242      1954
 -1      8742    3    0    1
 -2      1413      1715      1386      1891
 -1      8743    3    0    1
 -2      1251      1678        86      1258
 -1      8744    3    0    1
 -2       243      1320      1325      1954
 -1      8745    3    0    1
 -2      1312      1478      1311      1305
 -1      8746    3    0    1
 -2      1508      1291      1298      1461
 -1      8747    3    0    1
 -2      1314       242      1315       241
 -1      8748    3    0    1
 -2        94       241      1314      2048
 -1      8749    3    0    1
 -2      1713      1667      1751      1725
 -1      8750    3    0    1
 -2      1971      1954      1320      2044
 -1      8751    3    0    1
 -2      1599       962      1625       961
 -1      8752    3    0    1
 -2      1727      1667      1713      1725
 -1      8753    3    0    1
 -2       146      1339       796       145
 -1      8754    3    0    1
 -2      1726      1325      1321      1954
 -1      8755    3    0    1
 -2      1330      1311      1310       244
 -1      8756    3    0    1
 -2      1298      1299      1305      1434
 -1      8757    3    0    1
 -2      1478      1304      1305      1297
 -1      8758    3    0    1
 -2      1673      1754      1756      1696
 -1      8759    3    0    1
 -2      1696      1653      1755      1729
 -1      8760    3    0    1
 -2      1653      1857      1755      1626
 -1      8761    3    0    1
 -2      1321      1320      1725      1954
 -1      8762    3    0    1
 -2      1284      1292      1291      1461
 -1      8763    3    0    1
 -2       474      1397      1728      1624
 -1      8764    3    0    1
 -2       469      1731      1397      1624
 -1      8765    3    0    1
 -2      1713      1727      1725      1570
 -1      8766    3    0    1
 -2      1939       263       501      2054
 -1      8767    3    0    1
 -2      1570       484       483       488
 -1      8768    3    0    1
 -2      1713      1725       489      1570
 -1      8769    3    0    1
 -2       489      1725       494      1570
 -1      8770    3    0    1
 -2      1478      1305      1298      1297
 -1      8771    3    0    1
 -2      1434      1313      1312      1954
 -1      8772    3    0    1
 -2      1478      1637      1829      1960
 -1      8773    3    0    1
 -2      1298      1508      1478      1297
 -1      8774    3    0    1
 -2      1757       471       466      1424
 -1      8775    3    0    1
 -2      1291      1290      1508      1297
 -1      8776    3    0    1
 -2      1291      1508      1298      1297
 -1      8777    3    0    1
 -2      1407      1839      1840      1620
 -1      8778    3    0    1
 -2      1840      1420      1647      1738
 -1      8779    3    0    1
 -2      1362      1736      1707      2056
 -1      8780    3    0    1
 -2      1647      1234      1240      1241
 -1      8781    3    0    1
 -2      1284      1508      1283      1537
 -1      8782    3    0    1
 -2      1490      1351      1728      1730
 -1      8783    3    0    1
 -2      1537      1277      1284      1490
 -1      8784    3    0    1
 -2      1734      1381      1732      1520
 -1      8785    3    0    1
 -2      1729      1508      1478      1972
 -1      8786    3    0    1
 -2      1271      1277      1270      1520
 -1      8787    3    0    1
 -2      1351      1728      1397      1731
 -1      8788    3    0    1
 -2      1351      1733      1490      1731
 -1      8789    3    0    1
 -2      1287       238       237      1711
 -1      8790    3    0    1
 -2       479      1368      1728       474
 -1      8791    3    0    1
 -2      1678      1732      1651      1964
 -1      8792    3    0    1
 -2      1461      1285      1728      1490
 -1      8793    3    0    1
 -2      1537      1680      1835      1733
 -1      8794    3    0    1
 -2      1287       238      1711      1294
 -1      8795    3    0    1
 -2      1290      1291      1508      1284
 -1      8796    3    0    1
 -2      1832      1282      1508      1537
 -1      8797    3    0    1
 -2      1409      1734      1732      1549
 -1      8798    3    0    1
 -2      1283      1508      1282      1537
 -1      8799    3    0    1
 -2      1737      1409      1735      1549
 -1      8800    3    0    1
 -2      1730      1756      1351      1696
 -1      8801    3    0    1
 -2      1537      1832      1680      1730
 -1      8802    3    0    1
 -2      1653      1832      1508      1730
 -1      8803    3    0    1
 -2      1278      1284      1490      1285
 -1      8804    3    0    1
 -2      1275      1268      1276      1943
 -1      8805    3    0    1
 -2      1268      1565      1276      1943
 -1      8806    3    0    1
 -2      1724      1565      1268      1943
 -1      8807    3    0    1
 -2      1285      1624      1279      1286
 -1      8808    3    0    1
 -2      1257      1735      1250      1251
 -1      8809    3    0    1
 -2      1271      1270      1264      1520
 -1      8810    3    0    1
 -2      1753      1667      1713      1727
 -1      8811    3    0    1
 -2      1751      1322      1317      1725
 -1      8812    3    0    1
 -2      1509      1479       446       445
 -1      8813    3    0    1
 -2      1755      1667      1696      1729
 -1      8814    3    0    1
 -2      1113      1413      1386      1112
 -1      8815    3    0    1
 -2      1306      1314      1570      1307
 -1      8816    3    0    1
 -2      1434      1298      1299      1461
 -1      8817    3    0    1
 -2      1292      1299      1298      1461
 -1      8818    3    0    1
 -2      1292      1298      1291      1461
 -1      8819    3    0    1
 -2      1565      1709      1734      1733
 -1      8820    3    0    1
 -2       469       464      1731      1651
 -1      8821    3    0    1
 -2      1520      1381      1732      1731
 -1      8822    3    0    1
 -2      1733      1351      1381      1731
 -1      8823    3    0    1
 -2      1351      1490      1728      1731
 -1      8824    3    0    1
 -2      1733      1520      1490      1731
 -1      8825    3    0    1
 -2      1686       461      1758      1424
 -1      8826    3    0    1
 -2      1520      1565      1734      1733
 -1      8827    3    0    1
 -2      1490      1537      1277      1733
 -1      8828    3    0    1
 -2      1537      1565      1277      1733
 -1      8829    3    0    1
 -2      1520      1490      1277      1733
 -1      8830    3    0    1
 -2       494      1317       495        97
 -1      8831    3    0    1
 -2      1461      1508      1284      1730
 -1      8832    3    0    1
 -2      1508      1461      1284      1291
 -1      8833    3    0    1
 -2      1733      1351      1490      1730
 -1      8834    3    0    1
 -2       494      1317        97      1316
 -1      8835    3    0    1
 -2      1244      2056      1362      1707
 -1      8836    3    0    1
 -2       494      1317      1969       495
 -1      8837    3    0    1
 -2      1284      1537      1490      1730
 -1      8838    3    0    1
 -2      1490      1461      1284      1730
 -1      8839    3    0    1
 -2      1667      1755      1752      1626
 -1      8840    3    0    1
 -2      1434      1729      1478      1972
 -1      8841    3    0    1
 -2      1653      1756      1730      1696
 -1      8842    3    0    1
 -2      1653      1755      1756      1696
 -1      8843    3    0    1
 -2      1381      1520      1733      1731
 -1      8844    3    0    1
 -2      1713      1368      1753      1727
 -1      8845    3    0    1
 -2      1696      1753      1368      1727
 -1      8846    3    0    1
 -2      1696      1667      1753      1727
 -1      8847    3    0    1
 -2      1727      1667      1434      1729
 -1      8848    3    0    1
 -2      1696      1368      1728      1727
 -1      8849    3    0    1
 -2      1696      1728      1461      1727
 -1      8850    3    0    1
 -2      1461      1696      1727      1729
 -1      8851    3    0    1
 -2      1508      1653      1730      1729
 -1      8852    3    0    1
 -2      1730      1461      1508      1729
 -1      8853    3    0    1
 -2      1729      1653      1755      1626
 -1      8854    3    0    1
 -2      1325      1320      1321      1954
 -1      8855    3    0    1
 -2      1729      1831      1653      1626
 -1      8856    3    0    1
 -2      1829      1331      1332      1726
 -1      8857    3    0    1
 -2      1855      1857      1500      1626
 -1      8858    3    0    1
 -2      1326      1332      1331      1726
 -1      8859    3    0    1
 -2      1729      1434      1478      1726
 -1      8860    3    0    1
 -2      1729      1667      1434      1726
 -1      8861    3    0    1
 -2      1726      1729      1667      1626
 -1      8862    3    0    1
 -2      1726      1667      1752      1626
 -1      8863    3    0    1
 -2      1726      1829      1478      1626
 -1      8864    3    0    1
 -2      1478      1729      1726      1626
 -1      8865    3    0    1
 -2      1729      1478      1831      1626
 -1      8866    3    0    1
 -2      1478      1829      1831      1626
 -1      8867    3    0    1
 -2      1726      1667      1434      1725
 -1      8868    3    0    1
 -2      1312       242       243      1954
 -1      8869    3    0    1
 -2       243      1325      1312      1954
 -1      8870    3    0    1
 -2      1725      1322      1317      1316
 -1      8871    3    0    1
 -2      1725      1321      1322      1316
 -1      8872    3    0    1
 -2        89      1624       468        90
 -1      8873    3    0    1
 -2       503      2047       253      2049
 -1      8874    3    0    1
 -2      1317      1751      1725      1969
 -1      8875    3    0    1
 -2      1751      1956       496      2052
 -1      8876    3    0    1
 -2      1325       244      1312      1330
 -1      8877    3    0    1
 -2       489       490      1713       484
 -1      8878    3    0    1
 -2      1325       244       243      1312
 -1      8879    3    0    1
 -2      1713       490       485       484
 -1      8880    3    0    1
 -2       484      1597      1570       483
 -1      8881    3    0    1
 -2      1713       485      1727       484
 -1      8882    3    0    1
 -2      1728       479       474      1597
 -1      8883    3    0    1
 -2       474       479       478      1597
 -1      8884    3    0    1
 -2      1728       474      1624      1597
 -1      8885    3    0    1
 -2      1727      1728      1461      1597
 -1      8886    3    0    1
 -2      1461      1285      1292      1597
 -1      8887    3    0    1
 -2      1285      1461      1728      1597
 -1      8888    3    0    1
 -2       484       485      1368       479
 -1      8889    3    0    1
 -2       485       480      1368       479
 -1      8890    3    0    1
 -2      1758      1381      1757      1424
 -1      8891    3    0    1
 -2      1758      1732      1381      1424
 -1      8892    3    0    1
 -2      1758      1451      1732      1424
 -1      8893    3    0    1
 -2      1651      1490      1278      1520
 -1      8894    3    0    1
 -2      1451       460      1732      1424
 -1      8895    3    0    1
 -2      1731      1381      1732      1424
 -1      8896    3    0    1
 -2      1757      1381      1731      1424
 -1      8897    3    0    1
 -2      1624       469      1651       468
 -1      8898    3    0    1
 -2       475      1397       474       469
 -1      8899    3    0    1
 -2       475       470      1397       469
 -1      8900    3    0    1
 -2      1424       461       460       465
 -1      8901    3    0    1
 -2       466       461      1424       465
 -1      8902    3    0    1
 -2      1424       460      1732       459
 -1      8903    3    0    1
 -2       460      1424       465       459
 -1      8904    3    0    1
 -2       465      1424       464       459
 -1      8905    3    0    1
 -2      1678       453       458       454
 -1      8906    3    0    1
 -2       460      1451      1732       459
 -1      8907    3    0    1
 -2      1731       464      1424      1651
 -1      8908    3    0    1
 -2      1732      1731      1424      1651
 -1      8909    3    0    1
 -2       459      1424       464      1651
 -1      8910    3    0    1
 -2      1732      1424       459      1651
 -1      8911    3    0    1
 -2       474       469      1624       473
 -1      8912    3    0    1
 -2      1091      1973      1092      1099
 -1      8913    3    0    1
 -2      1954       242      2044      1313
 -1      8914    3    0    1
 -2        88      1272       463      1279
 -1      8915    3    0    1
 -2      1731       469      1651      1624
 -1      8916    3    0    1
 -2      1368       484       479      1597
 -1      8917    3    0    1
 -2      1368      1727       484      1597
 -1      8918    3    0    1
 -2      1368       479      1728      1597
 -1      8919    3    0    1
 -2      1727      1368      1728      1597
 -1      8920    3    0    1
 -2      1726      1829      1331      1960
 -1      8921    3    0    1
 -2      1091      1973      1099      1098
 -1      8922    3    0    1
 -2      1651       459       458       463
 -1      8923    3    0    1
 -2       464       459      1651       463
 -1      8924    3    0    1
 -2       463      1651       468      1279
 -1      8925    3    0    1
 -2       467       471       466      1686
 -1      8926    3    0    1
 -2      1257      1735      1549      1250
 -1      8927    3    0    1
 -2      1597       484       479       483
 -1      8928    3    0    1
 -2      1570      1314       488      1307
 -1      8929    3    0    1
 -2       138       482       477       764
 -1      8930    3    0    1
 -2       493       489      1570       488
 -1      8931    3    0    1
 -2      1434      1727      1461      2053
 -1      8932    3    0    1
 -2      1330      1726      1331      1960
 -1      8933    3    0    1
 -2      1632      1216      1391      1740
 -1      8934    3    0    1
 -2      1651       464       463       468
 -1      8935    3    0    1
 -2      1651       469       464       468
 -1      8936    3    0    1
 -2       242      1954      2044      1320
 -1      8937    3    0    1
 -2        92      1570        93      1307
 -1      8938    3    0    1
 -2      1651      1732      1520      1964
 -1      8939    3    0    1
 -2      1520      1271      1651      1964
 -1      8940    3    0    1
 -2       459      1732      1651      1678
 -1      8941    3    0    1
 -2      1651      1265       458      1678
 -1      8942    3    0    1
 -2       459      1651       458      1678
 -1      8943    3    0    1
 -2        88       458      1651        87
 -1      8944    3    0    1
 -2      1272       463      1651        88
 -1      8945    3    0    1
 -2       458      1651       463        88
 -1      8946    3    0    1
 -2      1433      1477      1239      1232
 -1      8947    3    0    1
 -2      1651      1272        88        87
 -1      8948    3    0    1
 -2      1265      1272      1651        87
 -1      8949    3    0    1
 -2       473      1597        91      1286
 -1      8950    3    0    1
 -2      1651      1624       468      1279
 -1      8951    3    0    1
 -2      1651      1271      1278      1279
 -1      8952    3    0    1
 -2      1271      1651      1272      1279
 -1      8953    3    0    1
 -2      1624        89       468      1279
 -1      8954    3    0    1
 -2      1632      1216      1740      1215
 -1      8955    3    0    1
 -2      1597      1285      1292      1286
 -1      8956    3    0    1
 -2      1292      1597      1286      1293
 -1      8957    3    0    1
 -2       473        90      1286        91
 -1      8958    3    0    1
 -2      1632      1216      1222      1391
 -1      8959    3    0    1
 -2      1300      1570        92      1307
 -1      8960    3    0    1
 -2      1597       473        91       478
 -1      8961    3    0    1
 -2       478      1597       483        91
 -1      8962    3    0    1
 -2        91      1597       483        92
 -1      8963    3    0    1
 -2       467       471      1686       472
 -1      8964    3    0    1
 -2      1570       489       484       488
 -1      8965    3    0    1
 -2      1570       483        92       488
 -1      8966    3    0    1
 -2      1570        92        93       488
 -1      8967    3    0    1
 -2      1202      2067      1194      1195
 -1      8968    3    0    1
 -2        94       493      1314       488
 -1      8969    3    0    1
 -2      1314        93        94       488
 -1      8970    3    0    1
 -2      1316      1725      1321      1315
 -1      8971    3    0    1
 -2      1320      1321      1725      1315
 -1      8972    3    0    1
 -2      1314      1313      1306      1971
 -1      8973    3    0    1
 -2       493        98      1315      2055
 -1      8974    3    0    1
 -2       483      1570        92      1300
 -1      8975    3    0    1
 -2        92      1597       483      1300
 -1      8976    3    0    1
 -2       483      1597      1570      1300
 -1      8977    3    0    1
 -2      1299      1570      1300      1307
 -1      8978    3    0    1
 -2      1570      1299      1306      1307
 -1      8979    3    0    1
 -2      1315      1314       241      2048
 -1      8980    3    0    1
 -2      1315       241        99      2048
 -1      8981    3    0    1
 -2      1259      1396      1423      2027
 -1      8982    3    0    1
 -2       491       495      1713       496
 -1      8983    3    0    1
 -2        77        76      1472      1195
 -1      8984    3    0    1
 -2      1250      1707      1244      1251
 -1      8985    3    0    1
 -2      1678        85       453       448
 -1      8986    3    0    1
 -2       428      1216      1391      1223
 -1      8987    3    0    1
 -2       408      1445       413        77
 -1      8988    3    0    1
 -2       419       418      1445      1418
 -1      8989    3    0    1
 -2      1362      1391       434      1739
 -1      8990    3    0    1
 -2      1362      1509       434       439
 -1      8991    3    0    1
 -2      1391       434      1538       429
 -1      8992    3    0    1
 -2       421       416      1594       420
 -1      8993    3    0    1
 -2      1214      1659      1703      1207
 -1      8994    3    0    1
 -2       453       458        86      1678
 -1      8995    3    0    1
 -2       424      1391      1418      1740
 -1      8996    3    0    1
 -2       373       374       379      1587
 -1      8997    3    0    1
 -2       393       394      1531       388
 -1      8998    3    0    1
 -2        73       393      1174      2068
 -1      8999    3    0    1
 -2      1445       408      1472      1195
 -1      9000    3    0    1
 -2       404       408      1472       409
 -1      9001    3    0    1
 -2       421       425       420      1566
 -1      9002    3    0    1
 -2      1188       403        75        76
 -1      9003    3    0    1
 -2      1472      1445      1195      2067
 -1      9004    3    0    1
 -2       404      1621       409      1472
 -1      9005    3    0    1
 -2      1648      1773      1621      1747
 -1      9006    3    0    1
 -2       386       390       385      1675
 -1      9007    3    0    1
 -2       401      1540      1773      1648
 -1      9008    3    0    1
 -2      1747      1607      1749      1372
 -1      9009    3    0    1
 -2      1214      1632      1659      1215
 -1      9010    3    0    1
 -2      1167      1531      1174      2065
 -1      9011    3    0    1
 -2       411      1621      1770       410
 -1      9012    3    0    1
 -2      1215      1740      1418      1216
 -1      9013    3    0    1
 -2      1744      1580      1770      1551
 -1      9014    3    0    1
 -2        81        80       428      1223
 -1      9015    3    0    1
 -2      1769       421       420      1566
 -1      9016    3    0    1
 -2       433       434       438      1362
 -1      9017    3    0    1
 -2      1538      1391       429      1740
 -1      9018    3    0    1
 -2      1418        79       418      1209
 -1      9019    3    0    1
 -2       449      1451       450       455
 -1      9020    3    0    1
 -2       454      1451       449       455
 -1      9021    3    0    1
 -2      1758      1760      1381      1409
 -1      9022    3    0    1
 -2      1741      1647      1420      1738
 -1      9023    3    0    1
 -2      1762      1765      1440      1463
 -1      9024    3    0    1
 -2      1362       434       438       439
 -1      9025    3    0    1
 -2      1209      1215      1418      1216
 -1      9026    3    0    1
 -2      1228      1674      1647      1227
 -1      9027    3    0    1
 -2      1230      1223      1391      1229
 -1      9028    3    0    1
 -2       919       665       173       914
 -1      9029    3    0    1
 -2      1242      1578      1605      1243
 -1      9030    3    0    1
 -2      1240      1407      1840      1620
 -1      9031    3    0    1
 -2      1472        76      1188      1195
 -1      9032    3    0    1
 -2      1391       433      1230      1362
 -1      9033    3    0    1
 -2      1655       727      2002      1628
 -1      9034    3    0    1
 -2       423       424       428      1391
 -1      9035    3    0    1
 -2       428      1216       423      1391
 -1      9036    3    0    1
 -2      1182       223       222      1592
 -1      9037    3    0    1
 -2       413      1202       418        78
 -1      9038    3    0    1
 -2      1187      1472      1188      1195
 -1      9039    3    0    1
 -2      1418      1445      1743      2062
 -1      9040    3    0    1
 -2       398        75        74      1502
 -1      9041    3    0    1
 -2       379       373      1587       378
 -1      9042    3    0    1
 -2      1441      1157      1165      1158
 -1      9043    3    0    1
 -2      1415      1749      1750      1372
 -1      9044    3    0    1
 -2       428      1216        80       423
 -1      9045    3    0    1
 -2      1580      1621      1747      1744
 -1      9046    3    0    1
 -2      1805      1776      1609      1634
 -1      9047    3    0    1
 -2      1616      1908      1491      1882
 -1      9048    3    0    1
 -2      1531       394      1502      1748
 -1      9049    3    0    1
 -2      1194      1472      1717      1187
 -1      9050    3    0    1
 -2      1805      1803      1661      1634
 -1      9051    3    0    1
 -2       405      1621       409       404
 -1      9052    3    0    1
 -2      1182       223      1592      1189
 -1      9053    3    0    1
 -2      1648      1607      1773      1747
 -1      9054    3    0    1
 -2      1178      1388      1179      1185
 -1      9055    3    0    1
 -2      1173      1174      1502      2065
 -1      9056    3    0    1
 -2      1531       393      1174      1502
 -1      9057    3    0    1
 -2      1187      1502      1472      1747
 -1      9058    3    0    1
 -2       400       401      1621      1648
 -1      9059    3    0    1
 -2      1566       420      1594      1743
 -1      9060    3    0    1
 -2        79       418      1202        78
 -1      9061    3    0    1
 -2       410       414       409      1594
 -1      9062    3    0    1
 -2       404       408       403      1472
 -1      9063    3    0    1
 -2      1746      1848      1533      1504
 -1      9064    3    0    1
 -2      1187      1194      1472      1195
 -1      9065    3    0    1
 -2        77       408      1445      1195
 -1      9066    3    0    1
 -2       410       414      1594       415
 -1      9067    3    0    1
 -2      1445      1202       418       413
 -1      9068    3    0    1
 -2       418       414      1445       413
 -1      9069    3    0    1
 -2       124       412      1511       125
 -1      9070    3    0    1
 -2       408       409      1445      1472
 -1      9071    3    0    1
 -2      1202        77      1445      1195
 -1      9072    3    0    1
 -2        77      1445       413        78
 -1      9073    3    0    1
 -2       413      1445      1202        78
 -1      9074    3    0    1
 -2       428      1216      1223        80
 -1      9075    3    0    1
 -2       421      1453       426      1566
 -1      9076    3    0    1
 -2      1244      1362        83       443
 -1      9077    3    0    1
 -2       423        80        79      1418
 -1      9078    3    0    1
 -2       420       425       424      1566
 -1      9079    3    0    1
 -2      1703      1358      1206      1207
 -1      9080    3    0    1
 -2      1362      1244        83      1237
 -1      9081    3    0    1
 -2      1230       433        82      1362
 -1      9082    3    0    1
 -2      1743      1566      1418      1740
 -1      9083    3    0    1
 -2      1741      1605      1739      1632
 -1      9084    3    0    1
 -2      1229      1391      1632      1222
 -1      9085    3    0    1
 -2      1463      1739      1492      1741
 -1      9086    3    0    1
 -2      1765      1766      1492      1538
 -1      9087    3    0    1
 -2      1566      1538       424      1740
 -1      9088    3    0    1
 -2       919       665       914      1395
 -1      9089    3    0    1
 -2        82       433       438      1362
 -1      9090    3    0    1
 -2      1632      1229      1222      1221
 -1      9091    3    0    1
 -2       449       453      1678       454
 -1      9092    3    0    1
 -2      1578      1735      1250      1549
 -1      9093    3    0    1
 -2      1145      1153      1587      1146
 -1      9094    3    0    1
 -2      1250      1735      1707      1251
 -1      9095    3    0    1
 -2      1735      1678      1707      1251
 -1      9096    3    0    1
 -2       440      1509       445       444
 -1      9097    3    0    1
 -2       449      1678      1707      1735
 -1      9098    3    0    1
 -2      1736      1707      1578      1735
 -1      9099    3    0    1
 -2      1362      1244      1237      1236
 -1      9100    3    0    1
 -2      1678      1265      1264      1964
 -1      9101    3    0    1
 -2      1587      1427      1559      1152
 -1      9102    3    0    1
 -2      1734      1409      1737      1549
 -1      9103    3    0    1
 -2      1362       443      1707       444
 -1      9104    3    0    1
 -2       441       445       440      1509
 -1      9105    3    0    1
 -2      1736      1362      1707       444
 -1      9106    3    0    1
 -2      1391      1229      1632      2059
 -1      9107    3    0    1
 -2        82      1237      1230      1362
 -1      9108    3    0    1
 -2      1391       434       433      1362
 -1      9109    3    0    1
 -2      1678        85       448      1251
 -1      9110    3    0    1
 -2      1223        81      1230      1391
 -1      9111    3    0    1
 -2        81       433        82      1391
 -1      9112    3    0    1
 -2        82      1230        81      1391
 -1      9113    3    0    1
 -2       433      1230        82      1391
 -1      9114    3    0    1
 -2       428        81      1223      1391
 -1      9115    3    0    1
 -2        81       428       433      1391
 -1      9116    3    0    1
 -2      1768      1447      1492      1742
 -1      9117    3    0    1
 -2      1463      1492      1767      1741
 -1      9118    3    0    1
 -2      1762      1509      1765      1463
 -1      9119    3    0    1
 -2      1509      1362       434      1739
 -1      9120    3    0    1
 -2      1740      1538      1391      1739
 -1      9121    3    0    1
 -2      1678        85      1251        86
 -1      9122    3    0    1
 -2        84      1244       443      1707
 -1      9123    3    0    1
 -2       448        84       443      1707
 -1      9124    3    0    1
 -2      1244        84        85      1707
 -1      9125    3    0    1
 -2       448        85        84      1707
 -1      9126    3    0    1
 -2      1364      1393      1839      1737
 -1      9127    3    0    1
 -2      1839      1407      1247      1620
 -1      9128    3    0    1
 -2      1839      1593      1364      1737
 -1      9129    3    0    1
 -2        86       458        87      1678
 -1      9130    3    0    1
 -2      1678      1707       448       449
 -1      9131    3    0    1
 -2       459      1451      1732      1678
 -1      9132    3    0    1
 -2      1678       459      1451       454
 -1      9133    3    0    1
 -2       448       453      1678       449
 -1      9134    3    0    1
 -2      1479      1436      1761      1735
 -1      9135    3    0    1
 -2       458       459      1678       454
 -1      9136    3    0    1
 -2       450      1451       451       455
 -1      9137    3    0    1
 -2      1451       454       449      1735
 -1      9138    3    0    1
 -2      1482      1132      1614      2070
 -1      9139    3    0    1
 -2       456       451      1451       455
 -1      9140    3    0    1
 -2       454       460      1451       455
 -1      9141    3    0    1
 -2       459       460      1451       454
 -1      9142    3    0    1
 -2       456      1451       460       455
 -1      9143    3    0    1
 -2      1451       449       450      1479
 -1      9144    3    0    1
 -2       449      1707       448       444
 -1      9145    3    0    1
 -2       443       448      1707       444
 -1      9146    3    0    1
 -2       450       446       451      1479
 -1      9147    3    0    1
 -2      1371       451       446      1479
 -1      9148    3    0    1
 -2       446      1762      1371      1479
 -1      9149    3    0    1
 -2      1371      1762      1761      1479
 -1      9150    3    0    1
 -2      1371      1761       451      1479
 -1      9151    3    0    1
 -2      1362      1736      1605      1739
 -1      9152    3    0    1
 -2      1736      1509      1762      1463
 -1      9153    3    0    1
 -2       431      1426       436      1538
 -1      9154    3    0    1
 -2      1426      1765       436      1538
 -1      9155    3    0    1
 -2       423        79       418      1418
 -1      9156    3    0    1
 -2      1769      1522      1766      1566
 -1      9157    3    0    1
 -2       435       434      1509       439
 -1      9158    3    0    1
 -2       435      1509       440       439
 -1      9159    3    0    1
 -2       444       440      1509       439
 -1      9160    3    0    1
 -2       444      1736      1362       439
 -1      9161    3    0    1
 -2       444      1509      1736       439
 -1      9162    3    0    1
 -2      1736      1509      1362       439
 -1      9163    3    0    1
 -2       437       441       436      1399
 -1      9164    3    0    1
 -2       429       433       428      1391
 -1      9165    3    0    1
 -2      1391       423       424      1418
 -1      9166    3    0    1
 -2       437       441      1399       442
 -1      9167    3    0    1
 -2      1538       435       431       430
 -1      9168    3    0    1
 -2       426      1538       430       425
 -1      9169    3    0    1
 -2       429       433      1391       434
 -1      9170    3    0    1
 -2      1766       426      1453      1566
 -1      9171    3    0    1
 -2       425       421       426      1566
 -1      9172    3    0    1
 -2       426      1766      1538      1566
 -1      9173    3    0    1
 -2       421      1594      1769       420
 -1      9174    3    0    1
 -2       415       419      1594       420
 -1      9175    3    0    1
 -2       411      1594       415       410
 -1      9176    3    0    1
 -2       411      1770      1594       410
 -1      9177    3    0    1
 -2      1583      1116      1108      1115
 -1      9178    3    0    1
 -2       415       419       414      1594
 -1      9179    3    0    1
 -2      1621       406       401       405
 -1      9180    3    0    1
 -2       401       400      1621       405
 -1      9181    3    0    1
 -2       405      1621       406       410
 -1      9182    3    0    1
 -2       406      1621       411       410
 -1      9183    3    0    1
 -2      1566      1418       419      1743
 -1      9184    3    0    1
 -2       421      1769      1453      1566
 -1      9185    3    0    1
 -2      1492      1522      1742      1740
 -1      9186    3    0    1
 -2      1538      1766      1492      1740
 -1      9187    3    0    1
 -2      1769      1766      1453      1566
 -1      9188    3    0    1
 -2      1509      1736      1362      1739
 -1      9189    3    0    1
 -2       424      1418      1566      1740
 -1      9190    3    0    1
 -2       424      1538       429      1740
 -1      9191    3    0    1
 -2        76       408        77      1472
 -1      9192    3    0    1
 -2        76      1188       403      1472
 -1      9193    3    0    1
 -2        76       403       408      1472
 -1      9194    3    0    1
 -2      1187      1502      1181      1472
 -1      9195    3    0    1
 -2      1748      1648      1502      1747
 -1      9196    3    0    1
 -2      1372      1749      1717      1179
 -1      9197    3    0    1
 -2      1648      1621       399      1747
 -1      9198    3    0    1
 -2      1852      1878      1589      1561
 -1      9199    3    0    1
 -2      1568      1803      1774      1675
 -1      9200    3    0    1
 -2      1607      1648      1748      1747
 -1      9201    3    0    1
 -2      1774      1607      1773      1648
 -1      9202    3    0    1
 -2      1774       396       395      1648
 -1      9203    3    0    1
 -2      1580      1773      1607      1747
 -1      9204    3    0    1
 -2       401      1773      1621      1648
 -1      9205    3    0    1
 -2      1502       398      1472       399
 -1      9206    3    0    1
 -2       401       400       396      1648
 -1      9207    3    0    1
 -2       394       395      1648      1748
 -1      9208    3    0    1
 -2      1747      1749      1717      1372
 -1      9209    3    0    1
 -2      1388      1192      1186      1185
 -1      9210    3    0    1
 -2       398      1502      1472      1181
 -1      9211    3    0    1
 -2      1717      1194      1187      1186
 -1      9212    3    0    1
 -2      1621       400      1648       399
 -1      9213    3    0    1
 -2       404       400      1621       399
 -1      9214    3    0    1
 -2       425      1538       424      1566
 -1      9215    3    0    1
 -2      1847      1474      1504      1745
 -1      9216    3    0    1
 -2      1744      1594      1445      1743
 -1      9217    3    0    1
 -2      1418       419       424      1566
 -1      9218    3    0    1
 -2       419       420       424      1566
 -1      9219    3    0    1
 -2      1594      1770      1769      1551
 -1      9220    3    0    1
 -2      1607      1749      1580      1747
 -1      9221    3    0    1
 -2      1621      1773      1580      1747
 -1      9222    3    0    1
 -2      1749      1717      1580      1747
 -1      9223    3    0    1
 -2       391      1803      1568      1675
 -1      9224    3    0    1
 -2      1748      1648      1774      1675
 -1      9225    3    0    1
 -2      1372      1415      1749      1179
 -1      9226    3    0    1
 -2      1192      1358      1191      1388
 -1      9227    3    0    1
 -2      1634      1776      1607      1750
 -1      9228    3    0    1
 -2      1607      1748      1634      1750
 -1      9229    3    0    1
 -2      1358      1848      1191      1388
 -1      9230    3    0    1
 -2      1169      1175      1619      1176
 -1      9231    3    0    1
 -2      1472       408        77      1195
 -1      9232    3    0    1
 -2      1717      1187      1180      1186
 -1      9233    3    0    1
 -2      1748      1774      1607      1634
 -1      9234    3    0    1
 -2      1774      1776      1607      1634
 -1      9235    3    0    1
 -2      1502      1648       399      1747
 -1      9236    3    0    1
 -2      1472      1502       399      1747
 -1      9237    3    0    1
 -2      1621       404       399      1747
 -1      9238    3    0    1
 -2       399       404      1472      1747
 -1      9239    3    0    1
 -2      1472       404      1621      1747
 -1      9240    3    0    1
 -2      1180      1747      1717      1372
 -1      9241    3    0    1
 -2      1472       409      1445      1744
 -1      9242    3    0    1
 -2      1472      1621       409      1744
 -1      9243    3    0    1
 -2      1594      1445       414      1744
 -1      9244    3    0    1
 -2       409       414      1445      1744
 -1      9245    3    0    1
 -2       409      1594       414      1744
 -1      9246    3    0    1
 -2       409      1621       410      1744
 -1      9247    3    0    1
 -2       410      1594       409      1744
 -1      9248    3    0    1
 -2       410      1621      1594      1744
 -1      9249    3    0    1
 -2       419      1594       420      1743
 -1      9250    3    0    1
 -2      1445       419      1418      1743
 -1      9251    3    0    1
 -2       414      1594       419      1743
 -1      9252    3    0    1
 -2      1445       414       419      1743
 -1      9253    3    0    1
 -2      1445      1594       414      1743
 -1      9254    3    0    1
 -2      1198      1205      1519      1358
 -1      9255    3    0    1
 -2      1205      1847      1519      1358
 -1      9256    3    0    1
 -2      1191      1198      1519      1358
 -1      9257    3    0    1
 -2      1848      1191      1519      1358
 -1      9258    3    0    1
 -2      1206      1212      1205      1703
 -1      9259    3    0    1
 -2      1744      1687      1717      1746
 -1      9260    3    0    1
 -2      1533      1772      1580      1746
 -1      9261    3    0    1
 -2      1415      1441      1171      1172
 -1      9262    3    0    1
 -2      1177      1577      1170      1415
 -1      9263    3    0    1
 -2      1171      1177      1170      1415
 -1      9264    3    0    1
 -2      1577      1852      1170      1415
 -1      9265    3    0    1
 -2      1441      1171      1170      1415
 -1      9266    3    0    1
 -2      1852      1441      1170      1415
 -1      9267    3    0    1
 -2      1435      1852      1851      1561
 -1      9268    3    0    1
 -2      1627      1877      1775      1561
 -1      9269    3    0    1
 -2      1415      1852      1441      1750
 -1      9270    3    0    1
 -2      1852      1589      1441      1750
 -1      9271    3    0    1
 -2      1878      1776      1589      1561
 -1      9272    3    0    1
 -2      1852      1435      1878      1561
 -1      9273    3    0    1
 -2      1877      1878      1435      1561
 -1      9274    3    0    1
 -2      1750      1415      1852      1561
 -1      9275    3    0    1
 -2      1749      1415      1750      1561
 -1      9276    3    0    1
 -2      1750      1589      1776      1561
 -1      9277    3    0    1
 -2      1750      1852      1589      1561
 -1      9278    3    0    1
 -2      1848      1746      1533      1388
 -1      9279    3    0    1
 -2      1358      1746      1848      1388
 -1      9280    3    0    1
 -2      1746      1717      1749      1388
 -1      9281    3    0    1
 -2      1745      1687      1358      1207
 -1      9282    3    0    1
 -2      1745      1847      1474      1703
 -1      9283    3    0    1
 -2      1474      1873      1847      1504
 -1      9284    3    0    1
 -2      1551      1771      1522      1745
 -1      9285    3    0    1
 -2      1847      1848      1358      1504
 -1      9286    3    0    1
 -2      1742      1474      1844      1703
 -1      9287    3    0    1
 -2      1212      1674      1844      1703
 -1      9288    3    0    1
 -2      1687      1746      1551      1745
 -1      9289    3    0    1
 -2      1551      1772      1771      1504
 -1      9290    3    0    1
 -2      1551      1746      1772      1504
 -1      9291    3    0    1
 -2      1522      1771      1474      1745
 -1      9292    3    0    1
 -2      1504      1474      1771      1745
 -1      9293    3    0    1
 -2      1771      1551      1504      1745
 -1      9294    3    0    1
 -2      1504      1746      1358      1745
 -1      9295    3    0    1
 -2      1504      1551      1746      1745
 -1      9296    3    0    1
 -2      1212      1844      1489      1703
 -1      9297    3    0    1
 -2      1847      1489      1844      1703
 -1      9298    3    0    1
 -2      1844      1674      1742      1703
 -1      9299    3    0    1
 -2      1844      1474      1847      1703
 -1      9300    3    0    1
 -2      1741      1742      1674      1632
 -1      9301    3    0    1
 -2      1199      1206      1358      1200
 -1      9302    3    0    1
 -2       429      1391       424      1740
 -1      9303    3    0    1
 -2      1605      1362      1739      2059
 -1      9304    3    0    1
 -2      1391      1740      1739      1632
 -1      9305    3    0    1
 -2      1492      1765      1538      1739
 -1      9306    3    0    1
 -2      1765      1509      1538      1739
 -1      9307    3    0    1
 -2      1632      1605      1739      2059
 -1      9308    3    0    1
 -2      1418        80        79      1209
 -1      9309    3    0    1
 -2      1605      1739      1463      1741
 -1      9310    3    0    1
 -2      1740      1659      1632      1215
 -1      9311    3    0    1
 -2      1659      1742      1740      1632
 -1      9312    3    0    1
 -2      1739      1509      1736      1463
 -1      9313    3    0    1
 -2      1739      1765      1509      1463
 -1      9314    3    0    1
 -2      1739      1492      1765      1463
 -1      9315    3    0    1
 -2      1765      1492      1767      1463
 -1      9316    3    0    1
 -2      1436      1578      1736      1738
 -1      9317    3    0    1
 -2      1741      1605      1647      1738
 -1      9318    3    0    1
 -2      1578      1738      1620      1242
 -1      9319    3    0    1
 -2      1364      1760      1763      1409
 -1      9320    3    0    1
 -2      1364      1734      1760      1409
 -1      9321    3    0    1
 -2      1843      1420      1447      1741
 -1      9322    3    0    1
 -2      1420      1463      1741      1738
 -1      9323    3    0    1
 -2      1647      1843      1674      1741
 -1      9324    3    0    1
 -2      1647      1420      1843      1741
 -1      9325    3    0    1
 -2      1678        85        86       453
 -1      9326    3    0    1
 -2      1578      1605      1738      1242
 -1      9327    3    0    1
 -2      1362      1237      1230      1236
 -1      9328    3    0    1
 -2      1738      1647      1620      1242
 -1      9329    3    0    1
 -2      1479       449      1707      1735
 -1      9330    3    0    1
 -2      1701       898       216       893
 -1      9331    3    0    1
 -2      1010      1856      1347      1348
 -1      9332    3    0    1
 -2      1258      1678      1257      1251
 -1      9333    3    0    1
 -2      1647      1240      1620      1241
 -1      9334    3    0    1
 -2      1578      1707      1243      1250
 -1      9335    3    0    1
 -2      1243      1707      1244      1250
 -1      9336    3    0    1
 -2      1593      1263      1549      1256
 -1      9337    3    0    1
 -2      1413      1715      1113      1386
 -1      9338    3    0    1
 -2      1735      1707      1578      1250
 -1      9339    3    0    1
 -2      1737      1436      1578      1735
 -1      9340    3    0    1
 -2      1409      1436      1737      1735
 -1      9341    3    0    1
 -2      1703      1674      1742      1214
 -1      9342    3    0    1
 -2      1221      1742      1674      1214
 -1      9343    3    0    1
 -2      1213      1220      1674      1214
 -1      9344    3    0    1
 -2      1460      1674      1212      1219
 -1      9345    3    0    1
 -2      1247      1407      1240      1620
 -1      9346    3    0    1
 -2      1436      1737      1578      1738
 -1      9347    3    0    1
 -2      1436      1393      1737      1738
 -1      9348    3    0    1
 -2      1240      1840      1647      1620
 -1      9349    3    0    1
 -2      1234      1647      1242      1241
 -1      9350    3    0    1
 -2      1242      1647      1620      1241
 -1      9351    3    0    1
 -2      1549      1257      1250      1256
 -1      9352    3    0    1
 -2      1243      1578      1250      1249
 -1      9353    3    0    1
 -2      1745      1474      1742      1703
 -1      9354    3    0    1
 -2      1659      1745      1742      1703
 -1      9355    3    0    1
 -2      1207      1358      1206      1200
 -1      9356    3    0    1
 -2      1214      1222      1632      1215
 -1      9357    3    0    1
 -2      1587      1427      1778      1559
 -1      9358    3    0    1
 -2      1263      1264      1520      1549
 -1      9359    3    0    1
 -2      1737      1593      1734      1549
 -1      9360    3    0    1
 -2      1549      1250      1249      1256
 -1      9361    3    0    1
 -2      1549      1593      1256      2079
 -1      9362    3    0    1
 -2      1737      1549      1249      2079
 -1      9363    3    0    1
 -2      1620      1737      1578      1249
 -1      9364    3    0    1
 -2      1248      1620      1242      1249
 -1      9365    3    0    1
 -2      1549      1263      1257      1256
 -1      9366    3    0    1
 -2      1010      1347       195      1348
 -1      9367    3    0    1
 -2      1678      1264      1258      1257
 -1      9368    3    0    1
 -2      1249      1549      1256      2079
 -1      9369    3    0    1
 -2      1732      1734      1520      1549
 -1      9370    3    0    1
 -2      1672      1148      1701      1147
 -1      9371    3    0    1
 -2      1732      1678      1735      1549
 -1      9372    3    0    1
 -2      1257      1678      1264      1549
 -1      9373    3    0    1
 -2      1678      1651      1265      1964
 -1      9374    3    0    1
 -2      1249      1620      1737      2079
 -1      9375    3    0    1
 -2      1255      1256      1593      2079
 -1      9376    3    0    1
 -2      1235      1605      1647      1228
 -1      9377    3    0    1
 -2      1674      1741      1632      2061
 -1      9378    3    0    1
 -2      1674      1632      1228      2061
 -1      9379    3    0    1
 -2      1186      1717      1194      1193
 -1      9380    3    0    1
 -2      1605      1242      1243      1236
 -1      9381    3    0    1
 -2      1632      1229      1605      2059
 -1      9382    3    0    1
 -2      1218      1224      1217      1507
 -1      9383    3    0    1
 -2      1587      1427      1152      1454
 -1      9384    3    0    1
 -2      1587      1427      1454      1778
 -1      9385    3    0    1
 -2      1605      1235      1236      1229
 -1      9386    3    0    1
 -2      1632      1742      1674      1221
 -1      9387    3    0    1
 -2      1201      1687      1445      2062
 -1      9388    3    0    1
 -2      1229      1632      1605      1228
 -1      9389    3    0    1
 -2      1632      1741      1605      2061
 -1      9390    3    0    1
 -2      1229      1605      1235      1228
 -1      9391    3    0    1
 -2      1228      1229      1632      1221
 -1      9392    3    0    1
 -2      1703      1745      1358      1207
 -1      9393    3    0    1
 -2      1179      1388      1186      1185
 -1      9394    3    0    1
 -2      1742      1659      1703      1214
 -1      9395    3    0    1
 -2      1201      1687      1207      1200
 -1      9396    3    0    1
 -2      1221      1632      1742      1214
 -1      9397    3    0    1
 -2      1632      1659      1742      1214
 -1      9398    3    0    1
 -2      1222      1632      1221      1214
 -1      9399    3    0    1
 -2      1548      1191      1848      1388
 -1      9400    3    0    1
 -2      1548      1184      1191      1388
 -1      9401    3    0    1
 -2      1851      1184      1548      1388
 -1      9402    3    0    1
 -2      1851      1548      1848      1388
 -1      9403    3    0    1
 -2      1659      1214      1215      1208
 -1      9404    3    0    1
 -2      1703      1659      1745      1207
 -1      9405    3    0    1
 -2      1209      1202      1445      2062
 -1      9406    3    0    1
 -2      1743      1445      1687      2062
 -1      9407    3    0    1
 -2      1195      1194      1472      2067
 -1      9408    3    0    1
 -2      1445      1472      1744      2067
 -1      9409    3    0    1
 -2      1187      1502      1747      1180
 -1      9410    3    0    1
 -2      1472      1747      1717      1187
 -1      9411    3    0    1
 -2       403      1188        75      1181
 -1      9412    3    0    1
 -2      1472       403       398      1181
 -1      9413    3    0    1
 -2      1472      1188       403      1181
 -1      9414    3    0    1
 -2      1415      1171      1178      1172
 -1      9415    3    0    1
 -2      1441      1156      1603      1163
 -1      9416    3    0    1
 -2      1607      1750      1749      1372
 -1      9417    3    0    1
 -2      1171      1441      1170      1164
 -1      9418    3    0    1
 -2      1748      1607      1747      1372
 -1      9419    3    0    1
 -2      1441      1415      1750      1172
 -1      9420    3    0    1
 -2      1173      1372      1179      1172
 -1      9421    3    0    1
 -2      1531      1400      1748      2065
 -1      9422    3    0    1
 -2      1502      1180      1173      1372
 -1      9423    3    0    1
 -2      1502      1747      1180      1372
 -1      9424    3    0    1
 -2      1502      1748      1747      1372
 -1      9425    3    0    1
 -2      1372      1180      1173      1179
 -1      9426    3    0    1
 -2      1717      1180      1372      1179
 -1      9427    3    0    1
 -2      1186      1717      1749      1179
 -1      9428    3    0    1
 -2      1388      1717      1749      1186
 -1      9429    3    0    1
 -2      1180      1717      1186      1179
 -1      9430    3    0    1
 -2      1749      1388      1186      1179
 -1      9431    3    0    1
 -2      1388      1749      1415      1179
 -1      9432    3    0    1
 -2      1388      1415      1178      1179
 -1      9433    3    0    1
 -2      1703      1213      1214      1207
 -1      9434    3    0    1
 -2      1157      1164      1441      1165
 -1      9435    3    0    1
 -2      1208      1659      1214      1207
 -1      9436    3    0    1
 -2      1358      1199      1200      1193
 -1      9437    3    0    1
 -2      1388      1192      1358      1193
 -1      9438    3    0    1
 -2      1186      1388      1717      1193
 -1      9439    3    0    1
 -2      1192      1388      1186      1193
 -1      9440    3    0    1
 -2      1388      1358      1746      1193
 -1      9441    3    0    1
 -2      1746      1687      1717      1193
 -1      9442    3    0    1
 -2      1717      1687      1194      1193
 -1      9443    3    0    1
 -2      1200      1201      1687      1193
 -1      9444    3    0    1
 -2      1194      1687      1201      1193
 -1      9445    3    0    1
 -2      1502       398        75      1181
 -1      9446    3    0    1
 -2      1559      1160      1159      1935
 -1      9447    3    0    1
 -2      1174      1180      1502      1181
 -1      9448    3    0    1
 -2      1232      1231      1225      2034
 -1      9449    3    0    1
 -2      1659      1687      1208      2062
 -1      9450    3    0    1
 -2      1687      1744      1717      2067
 -1      9451    3    0    1
 -2      1687      1717      1194      2067
 -1      9452    3    0    1
 -2      1687      1194      1201      2067
 -1      9453    3    0    1
 -2       418        79      1202      1209
 -1      9454    3    0    1
 -2      1418       418      1445      1209
 -1      9455    3    0    1
 -2      1202      1445       418      1209
 -1      9456    3    0    1
 -2      1445      1418      1209      2062
 -1      9457    3    0    1
 -2      1208      1687      1201      2062
 -1      9458    3    0    1
 -2      1659      1743      1687      2062
 -1      9459    3    0    1
 -2      1740      1391      1418      1216
 -1      9460    3    0    1
 -2      1418      1391       423      1216
 -1      9461    3    0    1
 -2      1418       423        80      1216
 -1      9462    3    0    1
 -2      1090      1697        63      1097
 -1      9463    3    0    1
 -2      1413      1715      1891      1370
 -1      9464    3    0    1
 -2      1413      1715      1370      1113
 -1      9465    3    0    1
 -2        85      1244      1707      1251
 -1      9466    3    0    1
 -2      1219      1226      1674      1227
 -1      9467    3    0    1
 -2      1220      1219      1674      1227
 -1      9468    3    0    1
 -2      1221      1674      1228      1227
 -1      9469    3    0    1
 -2      1674      1221      1220      1227
 -1      9470    3    0    1
 -2       388       393        73      2068
 -1      9471    3    0    1
 -2      1512      1117      1124      1641
 -1      9472    3    0    1
 -2      1123      1130      1526      1482
 -1      9473    3    0    1
 -2      1645       903      1672       902
 -1      9474    3    0    1
 -2       388       383      1531      1991
 -1      9475    3    0    1
 -2      1750      1589      1441      1779
 -1      9476    3    0    1
 -2      1125      1132      1124      2070
 -1      9477    3    0    1
 -2      1559      1587      1153       378
 -1      9478    3    0    1
 -2      1138      1139      1587      2075
 -1      9479    3    0    1
 -2      1596      1569      1791      1789
 -1      9480    3    0    1
 -2      1660      1922      1896      1688
 -1      9481    3    0    1
 -2       383      1559      1160        72
 -1      9482    3    0    1
 -2      1692      1795      1650      1983
 -1      9483    3    0    1
 -2       853       848      1466       852
 -1      9484    3    0    1
 -2        62      1352       333      1090
 -1      9485    3    0    1
 -2      1885      1685      1550      1887
 -1      9486    3    0    1
 -2      1650      1410      1054      1061
 -1      9487    3    0    1
 -2      1989       267      1017      2018
 -1      9488    3    0    1
 -2      1074      1081      1080      1663
 -1      9489    3    0    1
 -2      1894      1792      1411      1438
 -1      9490    3    0    1
 -2      1919      1920      1602      1660
 -1      9491    3    0    1
 -2      1455      1790      1483      1792
 -1      9492    3    0    1
 -2      1482      1124      1132      2070
 -1      9493    3    0    1
 -2      1555      1512      1787      2069
 -1      9494    3    0    1
 -2      1117      1124      1123      1512
 -1      9495    3    0    1
 -2      1784      1719      1374      1782
 -1      9496    3    0    1
 -2      1512      1555      1787      1784
 -1      9497    3    0    1
 -2      1892      1413      1891      1370
 -1      9498    3    0    1
 -2      1780      1661      1778      1427
 -1      9499    3    0    1
 -2      1123      1116      1117      1512
 -1      9500    3    0    1
 -2      1787      1699      1374      1784
 -1      9501    3    0    1
 -2      1610      1636      1893      1938
 -1      9502    3    0    1
 -2      1425      1895      1466      1896
 -1      9503    3    0    1
 -2      1688      1642      1896      1899
 -1      9504    3    0    1
 -2      1096      1697      1569      2073
 -1      9505    3    0    1
 -2      1791      1411      1817      1384
 -1      9506    3    0    1
 -2      1494      1523      1927      1901
 -1      9507    3    0    1
 -2      1636      1792      1411      1894
 -1      9508    3    0    1
 -2      1818      1505      1920      1438
 -1      9509    3    0    1
 -2       339      1789      1470      1697
 -1      9510    3    0    1
 -2      1094      1610      1087      1095
 -1      9511    3    0    1
 -2      1791      1636      1610      1976
 -1      9512    3    0    1
 -2       600      1421      1394       599
 -1      9513    3    0    1
 -2      1410      1062      1054      1061
 -1      9514    3    0    1
 -2      1096      1102      1569      1103
 -1      9515    3    0    1
 -2       349       343      1668       348
 -1      9516    3    0    1
 -2      1649       115       362       367
 -1      9517    3    0    1
 -2      1416      1443      1811      1785
 -1      9518    3    0    1
 -2      1596      1089      1569      2073
 -1      9519    3    0    1
 -2      1382      1352       329       328
 -1      9520    3    0    1
 -2      1076      1382      1069        59
 -1      9521    3    0    1
 -2       339      1697       338       333
 -1      9522    3    0    1
 -2        66       353      1641      1118
 -1      9523    3    0    1
 -2      1801      1980       281       282
 -1      9524    3    0    1
 -2      1641      1117      1125      1118
 -1      9525    3    0    1
 -2      1151      1152      1158      1427
 -1      9526    3    0    1
 -2      1131      1130      1124      1482
 -1      9527    3    0    1
 -2      1784      1123      1526      1482
 -1      9528    3    0    1
 -2        66      1641      1125      1118
 -1      9529    3    0    1
 -2       358       353      1641        67
 -1      9530    3    0    1
 -2       389      1531       394       388
 -1      9531    3    0    1
 -2      1372      1750      1172      1400
 -1      9532    3    0    1
 -2        71      1160      1559        72
 -1      9533    3    0    1
 -2      1587      1781      1454      2075
 -1      9534    3    0    1
 -2      1138      1482      1132      2075
 -1      9535    3    0    1
 -2      1689      1783      1454      1781
 -1      9536    3    0    1
 -2      1468      1151      1427      2074
 -1      9537    3    0    1
 -2      1160      1166      1531      1167
 -1      9538    3    0    1
 -2      1150      1497      1468      1149
 -1      9539    3    0    1
 -2      1512      1124      1123      1482
 -1      9540    3    0    1
 -2      1138      1145      1137      1454
 -1      9541    3    0    1
 -2      1123      1124      1130      1482
 -1      9542    3    0    1
 -2      1778       374      1359      1587
 -1      9543    3    0    1
 -2      1778      1427      1777      1559
 -1      9544    3    0    1
 -2      1151      1145      1152      1454
 -1      9545    3    0    1
 -2      1427      1661      1778      1777
 -1      9546    3    0    1
 -2      1689      1806      1661      1780
 -1      9547    3    0    1
 -2      1587      1559       379       378
 -1      9548    3    0    1
 -2      1150      1143      1497      1149
 -1      9549    3    0    1
 -2      1468      1156      1441      1157
 -1      9550    3    0    1
 -2      1164      1441      1156      1157
 -1      9551    3    0    1
 -2      1163      1156      1603      1162
 -1      9552    3    0    1
 -2      1165      1171      1441      1172
 -1      9553    3    0    1
 -2      1697        63       333      1090
 -1      9554    3    0    1
 -2      1616      1589      1805      1779
 -1      9555    3    0    1
 -2      1155      1148      1149      1630
 -1      9556    3    0    1
 -2      1166      1172      1400      1173
 -1      9557    3    0    1
 -2      1166      1159      1160      1935
 -1      9558    3    0    1
 -2      1780      1689      1643      1783
 -1      9559    3    0    1
 -2      1441      1750      1779      1400
 -1      9560    3    0    1
 -2      1777      1400      1531      1935
 -1      9561    3    0    1
 -2      1158      1441      1468      1779
 -1      9562    3    0    1
 -2      1165      1158      1166      1400
 -1      9563    3    0    1
 -2      1152      1159      1158      1427
 -1      9564    3    0    1
 -2      1779      1158      1441      1400
 -1      9565    3    0    1
 -2      1165      1441      1158      1400
 -1      9566    3    0    1
 -2      1634      1589      1750      1779
 -1      9567    3    0    1
 -2      1634      1805      1589      1779
 -1      9568    3    0    1
 -2      1661      1805      1634      1779
 -1      9569    3    0    1
 -2      1616      1468      1881      1779
 -1      9570    3    0    1
 -2      1136      1137      1144      1497
 -1      9571    3    0    1
 -2      1441      1881      1468      1779
 -1      9572    3    0    1
 -2      1783      1497      1526      1885
 -1      9573    3    0    1
 -2      1616      1805      1661      1779
 -1      9574    3    0    1
 -2      1616      1881      1589      1779
 -1      9575    3    0    1
 -2      1783      1784      1526      1482
 -1      9576    3    0    1
 -2      1689      1661      1778      1780
 -1      9577    3    0    1
 -2      1124      1512      1641      2070
 -1      9578    3    0    1
 -2      1781       369      1614      1587
 -1      9579    3    0    1
 -2       369      1389      1781       364
 -1      9580    3    0    1
 -2      1649      1808      1807      1389
 -1      9581    3    0    1
 -2      1806      1689      1643      1780
 -1      9582    3    0    1
 -2      1808       361       360      1389
 -1      9583    3    0    1
 -2      1589      1881      1441      1779
 -1      9584    3    0    1
 -2      1616      1661      1806      1780
 -1      9585    3    0    1
 -2      1908      1643      1521      1882
 -1      9586    3    0    1
 -2      1137      1130      1526      1136
 -1      9587    3    0    1
 -2      1466      1078      1495      1077
 -1      9588    3    0    1
 -2      1123      1122      1115      1555
 -1      9589    3    0    1
 -2      1151      1144      1454      2074
 -1      9590    3    0    1
 -2      1661      1616      1779      1780
 -1      9591    3    0    1
 -2      1779      1661      1780      1427
 -1      9592    3    0    1
 -2      1806      1643      1616      1780
 -1      9593    3    0    1
 -2      1787      1555      1699      1784
 -1      9594    3    0    1
 -2      1915      1813      1421      1354
 -1      9595    3    0    1
 -2      1123      1115      1116      1555
 -1      9596    3    0    1
 -2      1122      1123      1526      1555
 -1      9597    3    0    1
 -2      1810      1719      1374      1784
 -1      9598    3    0    1
 -2      1606      1892      1370      1890
 -1      9599    3    0    1
 -2       348       353        66      1118
 -1      9600    3    0    1
 -2      1382        60       328       323
 -1      9601    3    0    1
 -2      1421      1813      1814      1354
 -1      9602    3    0    1
 -2      1124      1482      1132      1131
 -1      9603    3    0    1
 -2      1649       115       116       603
 -1      9604    3    0    1
 -2      1374      1416      1811      1785
 -1      9605    3    0    1
 -2      1697      1789      1569      2073
 -1      9606    3    0    1
 -2      1668      1541      1110      2071
 -1      9607    3    0    1
 -2      1354      1889      1583      1890
 -1      9608    3    0    1
 -2      1116      1123      1555      1512
 -1      9609    3    0    1
 -2      1685      1128      1526      1963
 -1      9610    3    0    1
 -2      1402      1811      1443      1785
 -1      9611    3    0    1
 -2      1109      1117      1116      1541
 -1      9612    3    0    1
 -2      1512      1116      1117      1541
 -1      9613    3    0    1
 -2      1110      1117      1109      1541
 -1      9614    3    0    1
 -2      1454      1152      1587      1145
 -1      9615    3    0    1
 -2      1102      1094      1610      1101
 -1      9616    3    0    1
 -2      1094      1100      1610      1101
 -1      9617    3    0    1
 -2      1411      1920      1919      1660
 -1      9618    3    0    1
 -2      1636      1088      1087      1976
 -1      9619    3    0    1
 -2      1075      1074      1068      1623
 -1      9620    3    0    1
 -2      1029      1539      1030      1036
 -1      9621    3    0    1
 -2      1795      1650      1796      1692
 -1      9622    3    0    1
 -2      1899      1452      1480      2006
 -1      9623    3    0    1
 -2      1623      1074      1068      1067
 -1      9624    3    0    1
 -2      1793      1061      1650      1068
 -1      9625    3    0    1
 -2      1046      1722      1045      1377
 -1      9626    3    0    1
 -2      1060      1061      1650      1053
 -1      9627    3    0    1
 -2      1557      1513      1819      1793
 -1      9628    3    0    1
 -2      1068      1650      1793      1623
 -1      9629    3    0    1
 -2      1483      1818      1792      1438
 -1      9630    3    0    1
 -2      1513      1465      1821      1795
 -1      9631    3    0    1
 -2      1821      1465      1923      1438
 -1      9632    3    0    1
 -2      1096      1095      1089      1569
 -1      9633    3    0    1
 -2      1089      1095      1088      1569
 -1      9634    3    0    1
 -2      1636      1087      1086      1938
 -1      9635    3    0    1
 -2      1789      1569      1429      1786
 -1      9636    3    0    1
 -2      1794      1542      1513      1796
 -1      9637    3    0    1
 -2      1411      1817      1455      1791
 -1      9638    3    0    1
 -2      1080      1081      1087      1636
 -1      9639    3    0    1
 -2      1718      1923      1465      1897
 -1      9640    3    0    1
 -2      1889      1699      1915      1354
 -1      9641    3    0    1
 -2      1382      1528      1790      1793
 -1      9642    3    0    1
 -2      1108      1107      1101      1583
 -1      9643    3    0    1
 -2      1788      1541      1102      1583
 -1      9644    3    0    1
 -2      1550      1670      1886      1885
 -1      9645    3    0    1
 -2      1521      1550      1913      1887
 -1      9646    3    0    1
 -2      1616      1643      1908      1882
 -1      9647    3    0    1
 -2        63      1697       333       338
 -1      9648    3    0    1
 -2      1374      1811      1402      1785
 -1      9649    3    0    1
 -2      1421      1814      1916      1354
 -1      9650    3    0    1
 -2       354       353      1641       359
 -1      9651    3    0    1
 -2      1778      1559       379      1587
 -1      9652    3    0    1
 -2      1102      1610      1569      1788
 -1      9653    3    0    1
 -2      1919      1817      1411      1384
 -1      9654    3    0    1
 -2      1814      1429      1817      1384
 -1      9655    3    0    1
 -2      1555      1114      1115      1583
 -1      9656    3    0    1
 -2      1814      1402      1429      1788
 -1      9657    3    0    1
 -2        62        61      1352      1090
 -1      9658    3    0    1
 -2       343       339       344      1697
 -1      9659    3    0    1
 -2      1402      1443      1812      1786
 -1      9660    3    0    1
 -2      1541      1102      1103      1569
 -1      9661    3    0    1
 -2      1106      1112      1105      1413
 -1      9662    3    0    1
 -2      1786      1429      1402      1788
 -1      9663    3    0    1
 -2      1610      1095      1102      1569
 -1      9664    3    0    1
 -2      1082      1790      1352      1596
 -1      9665    3    0    1
 -2      1786      1443      1812      1470
 -1      9666    3    0    1
 -2      1103      1541      1569      2071
 -1      9667    3    0    1
 -2      1821      1483      1513      1795
 -1      9668    3    0    1
 -2      1921      1919      1602      1660
 -1      9669    3    0    1
 -2       349      1785      1443       354
 -1      9670    3    0    1
 -2      1095      1610      1087      1976
 -1      9671    3    0    1
 -2      1402      1541      1786      1788
 -1      9672    3    0    1
 -2      1817      1429      1455      1791
 -1      9673    3    0    1
 -2      1088      1095      1087      1976
 -1      9674    3    0    1
 -2      1087      1610      1636      1976
 -1      9675    3    0    1
 -2      1795      1663      1792      1623
 -1      9676    3    0    1
 -2       817      1903      1581       822
 -1      9677    3    0    1
 -2      1922      1920      1629      1688
 -1      9678    3    0    1
 -2        60      1382       328      1083
 -1      9679    3    0    1
 -2      1087      1086      1080      1636
 -1      9680    3    0    1
 -2      1636      1663      1792      1894
 -1      9681    3    0    1
 -2      1792      1411      1455      1791
 -1      9682    3    0    1
 -2      1455      1596      1792      1791
 -1      9683    3    0    1
 -2      1697      1096      1569      2071
 -1      9684    3    0    1
 -2      1082      1090      1089      2073
 -1      9685    3    0    1
 -2      1791      1569      1429      1789
 -1      9686    3    0    1
 -2      1791      1429      1455      1789
 -1      9687    3    0    1
 -2      1668       343       344      1697
 -1      9688    3    0    1
 -2      1443      1668      1786      1785
 -1      9689    3    0    1
 -2      1541      1668      1786      2071
 -1      9690    3    0    1
 -2      1352      1082      1596      2073
 -1      9691    3    0    1
 -2      1429      1789      1786      1470
 -1      9692    3    0    1
 -2      1110      1103      1104      2071
 -1      9693    3    0    1
 -2      1668      1111      1117      1118
 -1      9694    3    0    1
 -2      1801      1980       284       281
 -1      9695    3    0    1
 -2      1807      1719      1781      1389
 -1      9696    3    0    1
 -2       366       370       365      1389
 -1      9697    3    0    1
 -2      1404       571      1950       570
 -1      9698    3    0    1
 -2      1785      1512      1782      1641
 -1      9699    3    0    1
 -2      1791      1569      1610      1788
 -1      9700    3    0    1
 -2      1569      1791      1429      1788
 -1      9701    3    0    1
 -2      1786      1569      1429      1788
 -1      9702    3    0    1
 -2      1786      1541      1569      1788
 -1      9703    3    0    1
 -2      1101      1102      1109      1583
 -1      9704    3    0    1
 -2      1541      1109      1102      1583
 -1      9705    3    0    1
 -2      1555      1116      1512      2069
 -1      9706    3    0    1
 -2      1116      1583      1541      2069
 -1      9707    3    0    1
 -2      1787      1374      1512      1784
 -1      9708    3    0    1
 -2      1512      1123      1555      1784
 -1      9709    3    0    1
 -2      1555      1123      1526      1784
 -1      9710    3    0    1
 -2      1454      1783      1482      1781
 -1      9711    3    0    1
 -2      1131      1138      1130      1482
 -1      9712    3    0    1
 -2       365       369      1389       370
 -1      9713    3    0    1
 -2      1719      1809      1689      1783
 -1      9714    3    0    1
 -2      1784      1810      1719      1670
 -1      9715    3    0    1
 -2      1809      1719      1810      1670
 -1      9716    3    0    1
 -2       625      1804      1622      1662
 -1      9717    3    0    1
 -2      1806      1908      1681      1616
 -1      9718    3    0    1
 -2      1806      1681      1805      1616
 -1      9719    3    0    1
 -2      1748      1750      1372      1400
 -1      9720    3    0    1
 -2      1159      1166      1158      1400
 -1      9721    3    0    1
 -2      1750      1634      1779      1400
 -1      9722    3    0    1
 -2      1427      1779      1661      1777
 -1      9723    3    0    1
 -2      1389      1359      1807       370
 -1      9724    3    0    1
 -2      1643      1497      1783      1885
 -1      9725    3    0    1
 -2      1643      1689      1809      1783
 -1      9726    3    0    1
 -2      1497      1780      1643      1783
 -1      9727    3    0    1
 -2      1783      1780      1689      1454
 -1      9728    3    0    1
 -2      1778      1689      1780      1454
 -1      9729    3    0    1
 -2      1526      1137      1136      1497
 -1      9730    3    0    1
 -2      1670      1784      1526      1783
 -1      9731    3    0    1
 -2      1482      1783      1719      1781
 -1      9732    3    0    1
 -2      1808      1719      1807      1389
 -1      9733    3    0    1
 -2      1670      1809      1719      1783
 -1      9734    3    0    1
 -2      1670      1643      1809      1783
 -1      9735    3    0    1
 -2      1808       366       361      1389
 -1      9736    3    0    1
 -2      1783      1719      1784      1482
 -1      9737    3    0    1
 -2      1454      1783      1497      2072
 -1      9738    3    0    1
 -2      1130      1137      1526      1482
 -1      9739    3    0    1
 -2      1649       115       603       362
 -1      9740    3    0    1
 -2      1137      1130      1138      1482
 -1      9741    3    0    1
 -2      1138      1137      1482      1454
 -1      9742    3    0    1
 -2      1144      1137      1145      1454
 -1      9743    3    0    1
 -2      1454      1137      1482      2072
 -1      9744    3    0    1
 -2      1497      1137      1144      1454
 -1      9745    3    0    1
 -2      1783      1497      1780      1454
 -1      9746    3    0    1
 -2      1454      1497      1780      2074
 -1      9747    3    0    1
 -2      1160      1159      1152      1559
 -1      9748    3    0    1
 -2      1427      1152      1159      1559
 -1      9749    3    0    1
 -2      1675      1748      1531      1777
 -1      9750    3    0    1
 -2      1675      1634      1748      1777
 -1      9751    3    0    1
 -2      1400      1748      1634      1777
 -1      9752    3    0    1
 -2      1151      1158      1468      1427
 -1      9753    3    0    1
 -2      1468      1779      1780      1427
 -1      9754    3    0    1
 -2      1780      1497      1468      2074
 -1      9755    3    0    1
 -2      1152      1151      1454      1427
 -1      9756    3    0    1
 -2      1151      1143      1144      2074
 -1      9757    3    0    1
 -2      1781      1359      1807      1389
 -1      9758    3    0    1
 -2      1117      1125      1124      1641
 -1      9759    3    0    1
 -2       353      1668      1641      1118
 -1      9760    3    0    1
 -2       369      1781      1614       364
 -1      9761    3    0    1
 -2       368       374       373      1587
 -1      9762    3    0    1
 -2      1614      1781      1587      2075
 -1      9763    3    0    1
 -2       358        68      1132       363
 -1      9764    3    0    1
 -2       369       365      1389       364
 -1      9765    3    0    1
 -2      1482      1784      1512      1782
 -1      9766    3    0    1
 -2      1482      1719      1784      1782
 -1      9767    3    0    1
 -2       366       370      1389       371
 -1      9768    3    0    1
 -2      1782      1808      1416      1389
 -1      9769    3    0    1
 -2      1782      1416       360      1389
 -1      9770    3    0    1
 -2       360      1416      1808      1389
 -1      9771    3    0    1
 -2      1782      1719      1808      1389
 -1      9772    3    0    1
 -2      1781      1719      1782      1389
 -1      9773    3    0    1
 -2       365       360      1389       364
 -1      9774    3    0    1
 -2      1138      1132      1139      2075
 -1      9775    3    0    1
 -2      1641      1512      1782      2070
 -1      9776    3    0    1
 -2      1587      1454      1138      2075
 -1      9777    3    0    1
 -2      1661      1803      1804      1704
 -1      9778    3    0    1
 -2      1661      1804      1778      1704
 -1      9779    3    0    1
 -2      1634      1748      1774      1675
 -1      9780    3    0    1
 -2      1704      1661      1803      1777
 -1      9781    3    0    1
 -2      1778      1661      1704      1777
 -1      9782    3    0    1
 -2       376       380       375      1359
 -1      9783    3    0    1
 -2       395       399      1648       400
 -1      9784    3    0    1
 -2      1634      1803      1661      1777
 -1      9785    3    0    1
 -2      1160      1559      1531      1935
 -1      9786    3    0    1
 -2      1748       395      1648      1675
 -1      9787    3    0    1
 -2       395      1774      1648      1675
 -1      9788    3    0    1
 -2       396      1774       395      1675
 -1      9789    3    0    1
 -2       395       391       396      1675
 -1      9790    3    0    1
 -2       396       391      1774      1675
 -1      9791    3    0    1
 -2      1372      1502      1748      2065
 -1      9792    3    0    1
 -2       664      1395       671      1723
 -1      9793    3    0    1
 -2      1614       368       369       363
 -1      9794    3    0    1
 -2       385       381      1704       380
 -1      9795    3    0    1
 -2      1807      1359       371       370
 -1      9796    3    0    1
 -2      1704      1778      1777      1559
 -1      9797    3    0    1
 -2      1777       384      1704      1559
 -1      9798    3    0    1
 -2       368        70        69      1587
 -1      9799    3    0    1
 -2       461      1424      1451      1758
 -1      9800    3    0    1
 -2      1777      1531       384      1559
 -1      9801    3    0    1
 -2      1400      1159      1166      1935
 -1      9802    3    0    1
 -2      1587      1139      1614      2075
 -1      9803    3    0    1
 -2       374      1359       375       379
 -1      9804    3    0    1
 -2      1704      1359      1778       379
 -1      9805    3    0    1
 -2      1675       395       391       390
 -1      9806    3    0    1
 -2      1675      1748       394       389
 -1      9807    3    0    1
 -2      1748      1675      1531       389
 -1      9808    3    0    1
 -2      1748      1531       394       389
 -1      9809    3    0    1
 -2      1531      1777       384       389
 -1      9810    3    0    1
 -2      1675       384      1777       389
 -1      9811    3    0    1
 -2      1531      1675      1777       389
 -1      9812    3    0    1
 -2       385       389      1675       390
 -1      9813    3    0    1
 -2       395       399       394      1648
 -1      9814    3    0    1
 -2       379      1704      1359       380
 -1      9815    3    0    1
 -2      1470      1443       344      1786
 -1      9816    3    0    1
 -2       379      1359       375       380
 -1      9817    3    0    1
 -2      1777      1675      1704       385
 -1      9818    3    0    1
 -2       384      1675      1777       385
 -1      9819    3    0    1
 -2       384      1777      1704       385
 -1      9820    3    0    1
 -2      1675       386      1803       385
 -1      9821    3    0    1
 -2      1704      1675      1803       385
 -1      9822    3    0    1
 -2      1704      1803       386       385
 -1      9823    3    0    1
 -2       378        72        71      1559
 -1      9824    3    0    1
 -2      1704       384       385       380
 -1      9825    3    0    1
 -2       379       384      1704       380
 -1      9826    3    0    1
 -2      1389      1781      1359       370
 -1      9827    3    0    1
 -2       358      1125      1614      1132
 -1      9828    3    0    1
 -2      1454      1138      1145      1587
 -1      9829    3    0    1
 -2       368      1614       369      1587
 -1      9830    3    0    1
 -2      1641      1125       358        67
 -1      9831    3    0    1
 -2      1389      1782      1614       364
 -1      9832    3    0    1
 -2      1641      1614      1782       359
 -1      9833    3    0    1
 -2      1132      1125      1614      2070
 -1      9834    3    0    1
 -2       364      1389      1782       359
 -1      9835    3    0    1
 -2       349      1668       354       348
 -1      9836    3    0    1
 -2       355       350      1443       354
 -1      9837    3    0    1
 -2      1668       353      1641       354
 -1      9838    3    0    1
 -2      1815      1429      1812      1470
 -1      9839    3    0    1
 -2      1812      1429      1786      1470
 -1      9840    3    0    1
 -2      1789      1429      1815      1470
 -1      9841    3    0    1
 -2       345       346      1812      1470
 -1      9842    3    0    1
 -2      1668      1104      1111        64
 -1      9843    3    0    1
 -2      1360       341      1815      1470
 -1      9844    3    0    1
 -2      1812      1360      1815      1470
 -1      9845    3    0    1
 -2      1360      1812       346      1470
 -1      9846    3    0    1
 -2       341      1360       346      1470
 -1      9847    3    0    1
 -2       346       341      1470       340
 -1      9848    3    0    1
 -2      1470       345       346       340
 -1      9849    3    0    1
 -2       330      1499       336       335
 -1      9850    3    0    1
 -2       335      1499      1789       334
 -1      9851    3    0    1
 -2       590      1811       597       596
 -1      9852    3    0    1
 -2      1499      1789      1470       335
 -1      9853    3    0    1
 -2       340       341      1470       335
 -1      9854    3    0    1
 -2      1470       341       336       335
 -1      9855    3    0    1
 -2      1470      1815      1499       335
 -1      9856    3    0    1
 -2       336      1815      1470       335
 -1      9857    3    0    1
 -2      1815       336      1499       335
 -1      9858    3    0    1
 -2      1789      1499      1352       334
 -1      9859    3    0    1
 -2      1352      1790      1382       329
 -1      9860    3    0    1
 -2      1352      1499      1790       329
 -1      9861    3    0    1
 -2      1505      1475       563      2050
 -1      9862    3    0    1
 -2      1668      1443      1786       344
 -1      9863    3    0    1
 -2      1786      1668       344      1697
 -1      9864    3    0    1
 -2      1649       603       116       610
 -1      9865    3    0    1
 -2      1470      1786       344      1697
 -1      9866    3    0    1
 -2      1470       340       335       339
 -1      9867    3    0    1
 -2      1475      1505       563       564
 -1      9868    3    0    1
 -2       339      1470       340       344
 -1      9869    3    0    1
 -2       340      1470       345       344
 -1      9870    3    0    1
 -2       351       355       350      1443
 -1      9871    3    0    1
 -2      1470      1789      1786      1697
 -1      9872    3    0    1
 -2       339       334      1789      1697
 -1      9873    3    0    1
 -2      1352      1789       334      1697
 -1      9874    3    0    1
 -2       364      1782      1614       359
 -1      9875    3    0    1
 -2       349      1443       350       354
 -1      9876    3    0    1
 -2      1416      1782       360       359
 -1      9877    3    0    1
 -2       359       353      1641       358
 -1      9878    3    0    1
 -2      1782      1416      1641       359
 -1      9879    3    0    1
 -2      1641        66      1125        67
 -1      9880    3    0    1
 -2       344      1443       345       349
 -1      9881    3    0    1
 -2       345      1443       350       349
 -1      9882    3    0    1
 -2        66       348      1118        65
 -1      9883    3    0    1
 -2       348      1668       353      1118
 -1      9884    3    0    1
 -2       354      1668       353       348
 -1      9885    3    0    1
 -2      1785      1416      1443       354
 -1      9886    3    0    1
 -2      1641      1416      1785       354
 -1      9887    3    0    1
 -2      1668      1785       349       354
 -1      9888    3    0    1
 -2      1785      1668      1641       354
 -1      9889    3    0    1
 -2       360      1782      1389       359
 -1      9890    3    0    1
 -2       354      1641      1416       359
 -1      9891    3    0    1
 -2       354      1416       355       359
 -1      9892    3    0    1
 -2      1416       360       355       359
 -1      9893    3    0    1
 -2      1614       364       359       358
 -1      9894    3    0    1
 -2       359      1641      1614       358
 -1      9895    3    0    1
 -2      1125      1614      1641       358
 -1      9896    3    0    1
 -2      1668       343      1104        64
 -1      9897    3    0    1
 -2      1697       339       334       333
 -1      9898    3    0    1
 -2      1789      1596      1569      2073
 -1      9899    3    0    1
 -2      1352       334       329       333
 -1      9900    3    0    1
 -2      1352        62       333       328
 -1      9901    3    0    1
 -2       334      1352      1697       333
 -1      9902    3    0    1
 -2      1823       306      1612      1585
 -1      9903    3    0    1
 -2      1083      1382      1075      1076
 -1      9904    3    0    1
 -2      1377      1046      1706      1039
 -1      9905    3    0    1
 -2        61      1083      1352      1090
 -1      9906    3    0    1
 -2      1404       571       577      1448
 -1      9907    3    0    1
 -2      1152      1587      1145      1153
 -1      9908    3    0    1
 -2      1096      1697      1090      1097
 -1      9909    3    0    1
 -2       329      1352       333       328
 -1      9910    3    0    1
 -2      1083      1352      1382       328
 -1      9911    3    0    1
 -2        63        62       333      1090
 -1      9912    3    0    1
 -2      1352      1596      1789      2073
 -1      9913    3    0    1
 -2       333      1352      1697      1090
 -1      9914    3    0    1
 -2      1152      1587      1153      1559
 -1      9915    3    0    1
 -2      1697        63      1097        64
 -1      9916    3    0    1
 -2      1104      1697      1097        64
 -1      9917    3    0    1
 -2      1781      1454      1778      1587
 -1      9918    3    0    1
 -2      1614      1139        68      1132
 -1      9919    3    0    1
 -2        69      1139      1614       368
 -1      9920    3    0    1
 -2      1139      1614        68        69
 -1      9921    3    0    1
 -2      1649       115       367       116
 -1      9922    3    0    1
 -2       358      1614       364       363
 -1      9923    3    0    1
 -2       369      1359       374      1587
 -1      9924    3    0    1
 -2       369      1781      1359      1587
 -1      9925    3    0    1
 -2       368      1139      1614      1587
 -1      9926    3    0    1
 -2      1614      1482      1781      2075
 -1      9927    3    0    1
 -2       368        69      1139      1587
 -1      9928    3    0    1
 -2      1587      1139      1145      1146
 -1      9929    3    0    1
 -2        68        67       358      1132
 -1      9930    3    0    1
 -2        67      1125       358      1132
 -1      9931    3    0    1
 -2        69      1587        70      1146
 -1      9932    3    0    1
 -2      1587        69      1139      1146
 -1      9933    3    0    1
 -2      1152      1160      1559      1153
 -1      9934    3    0    1
 -2       590      1811       596      1705
 -1      9935    3    0    1
 -2      1482      1132      2075      1614
 -1      9936    3    0    1
 -2      1424       461      1451       460
 -1      9937    3    0    1
 -2       263      1828       268       264
 -1      9938    3    0    1
 -2      1421       600       592       599
 -1      9939    3    0    1
 -2      1421       600       593       592
 -1      9940    3    0    1
 -2      1174      1167        73      2068
 -1      9941    3    0    1
 -2       383       388        73      1991
 -1      9942    3    0    1
 -2       386       390      1675       391
 -1      9943    3    0    1
 -2       393      1174        74        73
 -1      9944    3    0    1
 -2      1991       388        73      2068
 -1      9945    3    0    1
 -2      1531       393       388      2068
 -1      9946    3    0    1
 -2        61        62      1352       328
 -1      9947    3    0    1
 -2        70      1587      1153      1146
 -1      9948    3    0    1
 -2      1111      1668        64        65
 -1      9949    3    0    1
 -2        60        61      1083       328
 -1      9950    3    0    1
 -2      1417      1431      1816      1458
 -1      9951    3    0    1
 -2        60      1382       318       323
 -1      9952    3    0    1
 -2       664      1395       665       671
 -1      9953    3    0    1
 -2       324       330      1528       325
 -1      9954    3    0    1
 -2       329       330      1528       324
 -1      9955    3    0    1
 -2       318      1382      1410       319
 -1      9956    3    0    1
 -2       328      1382       323       324
 -1      9957    3    0    1
 -2       329      1382       328       324
 -1      9958    3    0    1
 -2       329      1790      1382       324
 -1      9959    3    0    1
 -2       329      1528      1790       324
 -1      9960    3    0    1
 -2      1528      1382      1790       324
 -1      9961    3    0    1
 -2       314       313      1410       319
 -1      9962    3    0    1
 -2       312      1444       106       317
 -1      9963    3    0    1
 -2       321      1528       325       320
 -1      9964    3    0    1
 -2       368        70      1587       373
 -1      9965    3    0    1
 -2       394      1675       389       390
 -1      9966    3    0    1
 -2      1675       394       395       390
 -1      9967    3    0    1
 -2      1614       358      1132       363
 -1      9968    3    0    1
 -2      1614       369       364       363
 -1      9969    3    0    1
 -2      1614        69       368       363
 -1      9970    3    0    1
 -2        69      1614        68       363
 -1      9971    3    0    1
 -2      1617      1590      1928      1933
 -1      9972    3    0    1
 -2      1617       516      1590      1933
 -1      9973    3    0    1
 -2      1928      1369      1617      1933
 -1      9974    3    0    1
 -2      1369       516      1617      1933
 -1      9975    3    0    1
 -2      1597      1299      1570      1300
 -1      9976    3    0    1
 -2      1662      1622       618      1934
 -1      9977    3    0    1
 -2      1622      1662       618       625
 -1      9978    3    0    1
 -2      1649      1622      1807      1934
 -1      9979    3    0    1
 -2      1622      1649       617      1934
 -1      9980    3    0    1
 -2      1159      1427      1559      1935
 -1      9981    3    0    1
 -2      1559      1427      1777      1935
 -1      9982    3    0    1
 -2      1777      1427      1400      1935
 -1      9983    3    0    1
 -2      1427      1159      1400      1935
 -1      9984    3    0    1
 -2      1721      1810      1394      1936
 -1      9985    3    0    1
 -2       605      1394       606      1936
 -1      9986    3    0    1
 -2       606      1394      1365      1936
 -1      9987    3    0    1
 -2       606       612       605      1936
 -1      9988    3    0    1
 -2       612       606      1365      1936
 -1      9989    3    0    1
 -2       651       658       657      1937
 -1      9990    3    0    1
 -2      1422       658      1449      1937
 -1      9991    3    0    1
 -2      1422      1449      1880      1937
 -1      9992    3    0    1
 -2       651       650      1449      1937
 -1      9993    3    0    1
 -2       651       657       650      1937
 -1      9994    3    0    1
 -2      1398      1610      1893      1938
 -1      9995    3    0    1
 -2      1425      1893      1636      1938
 -1      9996    3    0    1
 -2      1086      1425      1636      1938
 -1      9997    3    0    1
 -2      1425      1398      1893      1938
 -1      9998    3    0    1
 -2      1425      1086      1398      1938
 -1      9999    3    0    1
 -2      1575       500       507      1939
 -1     10000    3    0    1
 -2      1828      1575      1617      1939
 -1     10001    3    0    1
 -2      1575       507      1617      1939
 -1     10002    3    0    1
 -2      1360       576       575      1940
 -1     10003    3    0    1
 -2       583       576      1404      1940
 -1     10004    3    0    1
 -2      1404       576      1360      1940
 -1     10005    3    0    1
 -2      1404      1376       583      1940
 -1     10006    3    0    1
 -2      1376      1404      1812      1940
 -1     10007    3    0    1
 -2      1922       559       567      1671
 -1     10008    3    0    1
 -2      1769      1481      1453      1941
 -1     10009    3    0    1
 -2       748      1574      1601       749
 -1     10010    3    0    1
 -2      1574       748      1601      2012
 -1     10011    3    0    1
 -2       899       644      1449      2077
 -1     10012    3    0    1
 -2       909       171       904      1942
 -1     10013    3    0    1
 -2      1942       904      1449      2077
 -1     10014    3    0    1
 -2       904      1449       909      1942
 -1     10015    3    0    1
 -2      1724      1835      1565      1943
 -1     10016    3    0    1
 -2      1268      1275      1724      1943
 -1     10017    3    0    1
 -2      1694      1724      1275      1943
 -1     10018    3    0    1
 -2      1724      1694      1835      1943
 -1     10019    3    0    1
 -2      1467      1515       710      1944
 -1     10020    3    0    1
 -2      1515      1467      1767      1944
 -1     10021    3    0    1
 -2      1485       710      1515      1944
 -1     10022    3    0    1
 -2      1767      1485      1515      1944
 -1     10023    3    0    1
 -2      1915      1547      1421      1945
 -1     10024    3    0    1
 -2       590      1811      1705      1376
 -1     10025    3    0    1
 -2       590      1811      1376       597
 -1     10026    3    0    1
 -2       723      1371       730       729
 -1     10027    3    0    1
 -2       723      1371       729       722
 -1     10028    3    0    1
 -2       248       249        39      1946
 -1     10029    3    0    1
 -2       150       799       504      1994
 -1     10030    3    0    1
 -2        38        39       249      1946
 -1     10031    3    0    1
 -2       799        39        38      1946
 -1     10032    3    0    1
 -2       248       253       249      2047
 -1     10033    3    0    1
 -2      2013      1932       253      2047
 -1     10034    3    0    1
 -2       733       740       739      1947
 -1     10035    3    0    1
 -2      1430       732       739      1947
 -1     10036    3    0    1
 -2       733       739       732      1947
 -1     10037    3    0    1
 -2      1457       733       732      1947
 -1     10038    3    0    1
 -2       732      1430      1457      1947
 -1     10039    3    0    1
 -2       536       535      1562      1948
 -1     10040    3    0    1
 -2      1517       535      1487      1948
 -1     10041    3    0    1
 -2      1822      1517      1487      1948
 -1     10042    3    0    1
 -2      1517      1562       535      1948
 -1     10043    3    0    1
 -2      1562      1517      1822      1948
 -1     10044    3    0    1
 -2        48       286       285      1949
 -1     10045    3    0    1
 -2       100       287         4      2066
 -1     10046    3    0    1
 -2       285       286      1639      1949
 -1     10047    3    0    1
 -2      1639       286      1827      1949
 -1     10048    3    0    1
 -2       284      1801       281      1995
 -1     10049    3    0    1
 -2      1801      1639      1827      1949
 -1     10050    3    0    1
 -2      1481       688      1525       681
 -1     10051    3    0    1
 -2      1481       688       681       687
 -1     10052    3    0    1
 -2      1922       559      1629       566
 -1     10053    3    0    1
 -2       571       570      1475      1950
 -1     10054    3    0    1
 -2       571      1475      1448      1950
 -1     10055    3    0    1
 -2      1367      1724      1837      1396
 -1     10056    3    0    1
 -2       709       715       708      1951
 -1     10057    3    0    1
 -2      1399       708       715      1951
 -1     10058    3    0    1
 -2       716       715       709      1951
 -1     10059    3    0    1
 -2       715       716      1399      1951
 -1     10060    3    0    1
 -2      1312      1960      1478      1954
 -1     10061    3    0    1
 -2      1312      1960      1330      1311
 -1     10062    3    0    1
 -2      1312      1960      1311      1478
 -1     10063    3    0    1
 -2      1371       730      1716      1761
 -1     10064    3    0    1
 -2       751      1357      1686      1953
 -1     10065    3    0    1
 -2       751      1686       750      1953
 -1     10066    3    0    1
 -2       744       751       750      1953
 -1     10067    3    0    1
 -2      1686       743       750      1953
 -1     10068    3    0    1
 -2       744       750       743      1953
 -1     10069    3    0    1
 -2      1829      1726      1478      1960
 -1     10070    3    0    1
 -2      1751      1956      1319      1958
 -1     10071    3    0    1
 -2      1312      1325      1330      1954
 -1     10072    3    0    1
 -2      1325      1726      1330      1954
 -1     10073    3    0    1
 -2      1311      1330      1310      1960
 -1     10074    3    0    1
 -2      1511      1770      1554      1955
 -1     10075    3    0    1
 -2      1511       674       673      1955
 -1     10076    3    0    1
 -2      1511       673      1481      1955
 -1     10077    3    0    1
 -2      1511      1481      1770      1955
 -1     10078    3    0    1
 -2      1481       673       680      1955
 -1     10079    3    0    1
 -2       674       680       673      1955
 -1     10080    3    0    1
 -2      1319      1318        95      1956
 -1     10081    3    0    1
 -2        95       497        14      1962
 -1     10082    3    0    1
 -2        96       497        95      1956
 -1     10083    3    0    1
 -2        96        95      1318      1956
 -1     10084    3    0    1
 -2      1751      1324      1957      1958
 -1     10085    3    0    1
 -2       793      1319       792      1958
 -1     10086    3    0    1
 -2      1690      1752      1855      2020
 -1     10087    3    0    1
 -2      1560       860      1588      1918
 -1     10088    3    0    1
 -2       789       796       795      2020
 -1     10089    3    0    1
 -2      1957      1329      1328      1965
 -1     10090    3    0    1
 -2       146       794       795      1967
 -1     10091    3    0    1
 -2       768      1720      1469       775
 -1     10092    3    0    1
 -2      1751      1319      1324      1958
 -1     10093    3    0    1
 -2      1011      2025      1456      1012
 -1     10094    3    0    1
 -2       189       770      1516       777
 -1     10095    3    0    1
 -2      1349      1959      1856      1961
 -1     10096    3    0    1
 -2      1959      1349      1856      1348
 -1     10097    3    0    1
 -2      2023      1011      1347      2025
 -1     10098    3    0    1
 -2       797       798      1344      1961
 -1     10099    3    0    1
 -2      1347      1830      1856      2023
 -1     10100    3    0    1
 -2      1010      1856      1348      1959
 -1     10101    3    0    1
 -2      1311      1304      1478      1960
 -1     10102    3    0    1
 -2      1304      1311      1310      1960
 -1     10103    3    0    1
 -2      1956      1751      1319      1318
 -1     10104    3    0    1
 -2      1478      1726      1954      1960
 -1     10105    3    0    1
 -2      1954      1726      1330      1960
 -1     10106    3    0    1
 -2      1098      1370      1099      1106
 -1     10107    3    0    1
 -2       798      1009      1486      1004
 -1     10108    3    0    1
 -2      1009       798      1486      1961
 -1     10109    3    0    1
 -2      1098      1370      1106      1413
 -1     10110    3    0    1
 -2      1098      1370      1413      1973
 -1     10111    3    0    1
 -2      1098      1370      1973      1099
 -1     10112    3    0    1
 -2      1958      1956      1319      1962
 -1     10113    3    0    1
 -2      1958       792       497      1962
 -1     10114    3    0    1
 -2       497      1956      1958      1962
 -1     10115    3    0    1
 -2      1685      1526      1886      1963
 -1     10116    3    0    1
 -2      1886      1715      1685      1963
 -1     10117    3    0    1
 -2      1121      1685      1715      1963
 -1     10118    3    0    1
 -2      1555      1715      1886      1963
 -1     10119    3    0    1
 -2      1555      1121      1715      1963
 -1     10120    3    0    1
 -2      1520      1732      1549      1964
 -1     10121    3    0    1
 -2      1549      1678      1264      1964
 -1     10122    3    0    1
 -2      1549      1732      1678      1964
 -1     10123    3    0    1
 -2      1264      1272      1271      1964
 -1     10124    3    0    1
 -2      1651      1271      1272      1964
 -1     10125    3    0    1
 -2      1328      1329      1334      1965
 -1     10126    3    0    1
 -2      1720       768      1469      1858
 -1     10127    3    0    1
 -2      1690       789       795      2020
 -1     10128    3    0    1
 -2       796       789      1442      2020
 -1     10129    3    0    1
 -2      1726      1321      1725      1954
 -1     10130    3    0    1
 -2      1344       797      1961      1966
 -1     10131    3    0    1
 -2       797       790      1961      1966
 -1     10132    3    0    1
 -2      1829      1342      1830      2011
 -1     10133    3    0    1
 -2      1442       790       797      1966
 -1     10134    3    0    1
 -2       797       796      1442      1966
 -1     10135    3    0    1
 -2      1344       796       797      1966
 -1     10136    3    0    1
 -2       795      1334       146      1967
 -1     10137    3    0    1
 -2       146      1329       794      1967
 -1     10138    3    0    1
 -2      1334      1329       146      1967
 -1     10139    3    0    1
 -2      1965      1957      1329      1967
 -1     10140    3    0    1
 -2       794       788       795      2015
 -1     10141    3    0    1
 -2       794      1329      1957      1967
 -1     10142    3    0    1
 -2      1406       650      1449      1968
 -1     10143    3    0    1
 -2      1406       643       650      1968
 -1     10144    3    0    1
 -2      1449       650       644      1968
 -1     10145    3    0    1
 -2       644       650       643      1968
 -1     10146    3    0    1
 -2        91      1286      1597      1293
 -1     10147    3    0    1
 -2      1632      1216      1215      1222
 -1     10148    3    0    1
 -2       494       489       495      1969
 -1     10149    3    0    1
 -2       489      1713       495      1969
 -1     10150    3    0    1
 -2      1725      1713       489      1969
 -1     10151    3    0    1
 -2      1725       489       494      1969
 -1     10152    3    0    1
 -2      1725      1667      1751      1970
 -1     10153    3    0    1
 -2      1667      1726      1752      1970
 -1     10154    3    0    1
 -2      1752      1751      1667      1970
 -1     10155    3    0    1
 -2      1323      1751      1752      1970
 -1     10156    3    0    1
 -2      1323      1322      1751      1970
 -1     10157    3    0    1
 -2      1323      1327      1322      1970
 -1     10158    3    0    1
 -2      1323      1752      1327      1970
 -1     10159    3    0    1
 -2      1971      1315      1314      2044
 -1     10160    3    0    1
 -2      1148      1701      1141      1657
 -1     10161    3    0    1
 -2      1954      1320      1725      1971
 -1     10162    3    0    1
 -2      1954      1434      1313      1971
 -1     10163    3    0    1
 -2      1725      1434      1954      1971
 -1     10164    3    0    1
 -2      1306      1313      1434      1971
 -1     10165    3    0    1
 -2      1434      1725      1570      1971
 -1     10166    3    0    1
 -2      1306      1434      1570      1971
 -1     10167    3    0    1
 -2      1729      1461      1508      1972
 -1     10168    3    0    1
 -2      1298      1508      1461      1972
 -1     10169    3    0    1
 -2      1729      1434      1461      1972
 -1     10170    3    0    1
 -2      1461      1434      1298      1972
 -1     10171    3    0    1
 -2      1098      1413      1439      1973
 -1     10172    3    0    1
 -2      1960      1310      1637      1974
 -1     10173    3    0    1
 -2      1310      1960      1637      1303
 -1     10174    3    0    1
 -2      1309      1310      1335      1974
 -1     10175    3    0    1
 -2      1310      1309      1637      1974
 -1     10176    3    0    1
 -2      1385       154       532       819
 -1     10177    3    0    1
 -2       275      2057       269       274
 -1     10178    3    0    1
 -2      1141      1134      1657      1975
 -1     10179    3    0    1
 -2      1141      1701      1140      1975
 -1     10180    3    0    1
 -2      1134      1141      1140      1975
 -1     10181    3    0    1
 -2      1701      1133      1140      1975
 -1     10182    3    0    1
 -2      1134      1140      1133      1975
 -1     10183    3    0    1
 -2      1636      1596      1088      1976
 -1     10184    3    0    1
 -2      1636      1791      1596      1976
 -1     10185    3    0    1
 -2      1569      1791      1610      1976
 -1     10186    3    0    1
 -2      1569      1596      1791      1976
 -1     10187    3    0    1
 -2      1569      1088      1596      1976
 -1     10188    3    0    1
 -2       760       752      1403      1977
 -1     10189    3    0    1
 -2       752       760       759      1977
 -1     10190    3    0    1
 -2       759       760      1375      1977
 -1     10191    3    0    1
 -2       760      1403      1375      1977
 -1     10192    3    0    1
 -2       779      1673      1646      1978
 -1     10193    3    0    1
 -2      1646      1673      1753      1978
 -1     10194    3    0    1
 -2       779       772      1673      1978
 -1     10195    3    0    1
 -2       772      1631      1673      1978
 -1     10196    3    0    1
 -2      1575       506       499      2064
 -1     10197    3    0    1
 -2        34       278       498      2066
 -1     10198    3    0    1
 -2       278      1827       273      2064
 -1     10199    3    0    1
 -2       506       498       499      2064
 -1     10200    3    0    1
 -2      1530      1575      1827      2064
 -1     10201    3    0    1
 -2       506      1530       498      2064
 -1     10202    3    0    1
 -2      1668        65      1118       348
 -1     10203    3    0    1
 -2       284      1493       283      2058
 -1     10204    3    0    1
 -2      1980       284       283      2058
 -1     10205    3    0    1
 -2      1027      1020       283      2058
 -1     10206    3    0    1
 -2      1464        55      1048       298
 -1     10207    3    0    1
 -2        51        40       282      1981
 -1     10208    3    0    1
 -2        40         8      1020      1981
 -1     10209    3    0    1
 -2        51         8        40      1981
 -1     10210    3    0    1
 -2        52      1020         8      1981
 -1     10211    3    0    1
 -2        51        52         8      1981
 -1     10212    3    0    1
 -2      1072      1452      1663      1982
 -1     10213    3    0    1
 -2      1452      1894      1663      1982
 -1     10214    3    0    1
 -2      1079      1425      1452      1982
 -1     10215    3    0    1
 -2      1452      1425      1894      1982
 -1     10216    3    0    1
 -2      1623      1663      1067      1983
 -1     10217    3    0    1
 -2      1623      1795      1663      1983
 -1     10218    3    0    1
 -2      1692      1663      1795      1983
 -1     10219    3    0    1
 -2      1692      1067      1663      1983
 -1     10220    3    0    1
 -2       616      1488       622       615
 -1     10221    3    0    1
 -2      1050      1553      1524      1049
 -1     10222    3    0    1
 -2       275      2057      1827      2003
 -1     10223    3    0    1
 -2       275      2057      2003       269
 -1     10224    3    0    1
 -2       276       272       271      1985
 -1     10225    3    0    1
 -2       337       111      1360       568
 -1     10226    3    0    1
 -2      1801      1827      1598      2003
 -1     10227    3    0    1
 -2      1598      1828      1802      2003
 -1     10228    3    0    1
 -2      1828       269       270      2003
 -1     10229    3    0    1
 -2      1598      1802      1801      2003
 -1     10230    3    0    1
 -2      1906       260       255       256
 -1     10231    3    0    1
 -2      1906      1428      1932      1986
 -1     10232    3    0    1
 -2       255      1906      1932      1986
 -1     10233    3    0    1
 -2      1905      1428      1906      1986
 -1     10234    3    0    1
 -2       262      1989      1016      1990
 -1     10235    3    0    1
 -2      1989       262      1016      1988
 -1     10236    3    0    1
 -2      1985       275      1801      2003
 -1     10237    3    0    1
 -2      1366      1693       678      1987
 -1     10238    3    0    1
 -2      1693      1366       678       685
 -1     10239    3    0    1
 -2      1210      1218      1846      1211
 -1     10240    3    0    1
 -2      1876      1366      1395      1987
 -1     10241    3    0    1
 -2      1218      1210      1846      1507
 -1     10242    3    0    1
 -2      1356       213      1119       878
 -1     10243    3    0    1
 -2        43       267      1017      1988
 -1     10244    3    0    1
 -2       262       267        43      1988
 -1     10245    3    0    1
 -2        43      1017      1016      1988
 -1     10246    3    0    1
 -2       262        43      1016      1988
 -1     10247    3    0    1
 -2      1676      1649       604       603
 -1     10248    3    0    1
 -2      1017      1018      1024      2018
 -1     10249    3    0    1
 -2      1905       266      1989      2018
 -1     10250    3    0    1
 -2       261       256      1905      2078
 -1     10251    3    0    1
 -2      1989       262       261      2078
 -1     10252    3    0    1
 -2      1905       256      1906      2078
 -1     10253    3    0    1
 -2      1985       275      2003       271
 -1     10254    3    0    1
 -2      1985       275       271       276
 -1     10255    3    0    1
 -2      1985       275       276      1801
 -1     10256    3    0    1
 -2      1984      1906       257      2078
 -1     10257    3    0    1
 -2      1015      1984      1990      2078
 -1     10258    3    0    1
 -2       383        73        72      1991
 -1     10259    3    0    1
 -2      1160        72      1167      1991
 -1     10260    3    0    1
 -2      1160       383        72      1991
 -1     10261    3    0    1
 -2       383      1160      1531      1991
 -1     10262    3    0    1
 -2      1531      1160      1167      1991
 -1     10263    3    0    1
 -2      1722      1692      1052      1992
 -1     10264    3    0    1
 -2      1059      1052      1692      1992
 -1     10265    3    0    1
 -2      1051      1052      1059      1992
 -1     10266    3    0    1
 -2      1058      1059      1692      1992
 -1     10267    3    0    1
 -2      1059      1058      1051      1992
 -1     10268    3    0    1
 -2      1875      1712      1366      1993
 -1     10269    3    0    1
 -2       685      1366       686      1993
 -1     10270    3    0    1
 -2       692       685       686      1993
 -1     10271    3    0    1
 -2       693       686      1366      1993
 -1     10272    3    0    1
 -2       693       692       686      1993
 -1     10273    3    0    1
 -2        39       248      1946      1994
 -1     10274    3    0    1
 -2        28         3       504      1994
 -1     10275    3    0    1
 -2        28        39         3      1994
 -1     10276    3    0    1
 -2       150       504         3      1994
 -1     10277    3    0    1
 -2        39       150         3      1994
 -1     10278    3    0    1
 -2      1639       285      1949      1995
 -1     10279    3    0    1
 -2      1949      1801      1639      1995
 -1     10280    3    0    1
 -2      1801       284      1639      1995
 -1     10281    3    0    1
 -2       285      1639       284      1995
 -1     10282    3    0    1
 -2      1638      1515      1869      1996
 -1     10283    3    0    1
 -2      1638       712      1515      1996
 -1     10284    3    0    1
 -2      1611      1638      1869      1996
 -1     10285    3    0    1
 -2      1638      1611       712      1996
 -1     10286    3    0    1
 -2       500        32        31      1997
 -1     10287    3    0    1
 -2       263        32       268      1997
 -1     10288    3    0    1
 -2       111       337      1360       342
 -1     10289    3    0    1
 -2      1815       576       569       568
 -1     10290    3    0    1
 -2      2003      1828       269      2057
 -1     10291    3    0    1
 -2      1997       500        32      2051
 -1     10292    3    0    1
 -2      2001        36       251      2016
 -1     10293    3    0    1
 -2        36       801        37      2016
 -1     10294    3    0    1
 -2      1383       800       801      1998
 -1     10295    3    0    1
 -2      1383      1932       800      1998
 -1     10296    3    0    1
 -2        36        37       251      2016
 -1     10297    3    0    1
 -2      2001       802        36      2016
 -1     10298    3    0    1
 -2      1611       727      1655       720
 -1     10299    3    0    1
 -2      1683       713      1638      1999
 -1     10300    3    0    1
 -2      1638      1871      1683      1999
 -1     10301    3    0    1
 -2      1674      1226      1460      2000
 -1     10302    3    0    1
 -2      1460      1843      1674      2000
 -1     10303    3    0    1
 -2      1460      1226      1433      2000
 -1     10304    3    0    1
 -2      1460      1433      1843      2000
 -1     10305    3    0    1
 -2      1906      1022      1567      1015
 -1     10306    3    0    1
 -2       803       252      1014      2001
 -1     10307    3    0    1
 -2      2059      1230      1391      1229
 -1     10308    3    0    1
 -2      2059      1230      1236      1362
 -1     10309    3    0    1
 -2      1608       803      1014      2001
 -1     10310    3    0    1
 -2       681      1525      1481      1955
 -1     10311    3    0    1
 -2      1584       727      1628      2002
 -1     10312    3    0    1
 -2      1584      1628      1868      2002
 -1     10313    3    0    1
 -2      1801       275      1827      2003
 -1     10314    3    0    1
 -2       212      1413       873       211
 -1     10315    3    0    1
 -2      1700       552      1656      2008
 -1     10316    3    0    1
 -2      1035      1539      1036      1043
 -1     10317    3    0    1
 -2      1035      1539      1043      1581
 -1     10318    3    0    1
 -2      1035      1539      1581      2005
 -1     10319    3    0    1
 -2      1828       265      1931      2004
 -1     10320    3    0    1
 -2      1931      1552      1828      2004
 -1     10321    3    0    1
 -2      1802      1828      1552      2004
 -1     10322    3    0    1
 -2       265      1828      1802      2004
 -1     10323    3    0    1
 -2      1029      1035      1028      2005
 -1     10324    3    0    1
 -2      1700       552       546      1656
 -1     10325    3    0    1
 -2      1700       552       553       546
 -1     10326    3    0    1
 -2      1700       552      2008       553
 -1     10327    3    0    1
 -2      1480      1064      1057      2006
 -1     10328    3    0    1
 -2      1524      1057      1056      2006
 -1     10329    3    0    1
 -2      1057      1064      1056      2006
 -1     10330    3    0    1
 -2      1524      1056      1063      2006
 -1     10331    3    0    1
 -2      1056      1064      1063      2006
 -1     10332    3    0    1
 -2      1410       309       314      2007
 -1     10333    3    0    1
 -2      1794      1410      1557      2007
 -1     10334    3    0    1
 -2      1557      1410       314      2007
 -1     10335    3    0    1
 -2       258       502      1931      2013
 -1     10336    3    0    1
 -2      1539      1377      1044      1901
 -1     10337    3    0    1
 -2       502       258      1931      2054
 -1     10338    3    0    1
 -2      1488       616       622      2031
 -1     10339    3    0    1
 -2      1015      1906      1984      2078
 -1     10340    3    0    1
 -2      1032      1361      1706      2009
 -1     10341    3    0    1
 -2      1361      1800      1706      2009
 -1     10342    3    0    1
 -2      1405      1800      1361      2009
 -1     10343    3    0    1
 -2      1032      1405      1361      2009
 -1     10344    3    0    1
 -2      1464      1041      1034      2010
 -1     10345    3    0    1
 -2      1713      2052       496       495
 -1     10346    3    0    1
 -2      1830      1341      1829      1974
 -1     10347    3    0    1
 -2      1574       748       755       756
 -1     10348    3    0    1
 -2      1040      1041      1464      2010
 -1     10349    3    0    1
 -2      1033      1041      1040      2010
 -1     10350    3    0    1
 -2      1403      1527       761      1861
 -1     10351    3    0    1
 -2      1527      1403       761       754
 -1     10352    3    0    1
 -2      1713      2052      1751       496
 -1     10353    3    0    1
 -2      1574       748       756       749
 -1     10354    3    0    1
 -2      1476       629      1910       636
 -1     10355    3    0    1
 -2      1856      1830      1342      2011
 -1     10356    3    0    1
 -2      1500      1830      1856      2011
 -1     10357    3    0    1
 -2      1527      1574      1864      2012
 -1     10358    3    0    1
 -2      1281      1711      1367      1834
 -1     10359    3    0    1
 -2      1711      1281      1367      1280
 -1     10360    3    0    1
 -2       795      1965      1334      1967
 -1     10361    3    0    1
 -2       795      1965      1967      2015
 -1     10362    3    0    1
 -2      1986      1932       254      2013
 -1     10363    3    0    1
 -2      1932       253       254      2013
 -1     10364    3    0    1
 -2       259      1931      1986      2013
 -1     10365    3    0    1
 -2       259       258      1931      2013
 -1     10366    3    0    1
 -2       254       253       258      2013
 -1     10367    3    0    1
 -2      1986       254       259      2013
 -1     10368    3    0    1
 -2       254       258       259      2013
 -1     10369    3    0    1
 -2      1469       776       783      2014
 -1     10370    3    0    1
 -2       777       776      1516      2014
 -1     10371    3    0    1
 -2       777       783       776      2014
 -1     10372    3    0    1
 -2      1516       784       777      2014
 -1     10373    3    0    1
 -2       777       784       783      2014
 -1     10374    3    0    1
 -2      1646       787       794      2015
 -1     10375    3    0    1
 -2      1690       787      1646      2015
 -1     10376    3    0    1
 -2      1646      1752      1690      2015
 -1     10377    3    0    1
 -2      1932      1906       250      2016
 -1     10378    3    0    1
 -2      1998      1383      1932      2016
 -1     10379    3    0    1
 -2      1383      1906      1932      2016
 -1     10380    3    0    1
 -2       801       802      1383      2016
 -1     10381    3    0    1
 -2      1383       802      1906      2016
 -1     10382    3    0    1
 -2      1626      1829      1855      2017
 -1     10383    3    0    1
 -2      1829      1332      1855      2017
 -1     10384    3    0    1
 -2      1855      1752      1626      2017
 -1     10385    3    0    1
 -2      1855      1332      1752      2017
 -1     10386    3    0    1
 -2      1361      1405      1025      2018
 -1     10387    3    0    1
 -2      1405      1361      1802      2018
 -1     10388    3    0    1
 -2      1985      1802      1361      2018
 -1     10389    3    0    1
 -2      1985      1361      1018      2018
 -1     10390    3    0    1
 -2      1985      1018       272      2018
 -1     10391    3    0    1
 -2      1017       272      1018      2018
 -1     10392    3    0    1
 -2      1690      1442      1857      2019
 -1     10393    3    0    1
 -2      1690       782      1442      2019
 -1     10394    3    0    1
 -2      1857      1442      1469      2019
 -1     10395    3    0    1
 -2      1469      1442       782      2019
 -1     10396    3    0    1
 -2      1333      1334      1339      2020
 -1     10397    3    0    1
 -2      1239      1477      1450      1238
 -1     10398    3    0    1
 -2      1930       517      1714      2021
 -1     10399    3    0    1
 -2       525       517       518      2021
 -1     10400    3    0    1
 -2      1385       525       518      2021
 -1     10401    3    0    1
 -2       525       524       517      2021
 -1     10402    3    0    1
 -2       524       525      1385      2021
 -1     10403    3    0    1
 -2       517       524      1714      2021
 -1     10404    3    0    1
 -2       524      1385      1714      2021
 -1     10405    3    0    1
 -2      1669      1700       830      2022
 -1     10406    3    0    1
 -2      1926       825      1700      2022
 -1     10407    3    0    1
 -2      1700       825       830      2022
 -1     10408    3    0    1
 -2      1236      2059      1362      1605
 -1     10409    3    0    1
 -2      1246      1450      1423      1245
 -1     10410    3    0    1
 -2      1450      1239      1407      2038
 -1     10411    3    0    1
 -2      1239      1450      1407      1246
 -1     10412    3    0    1
 -2      1711      1295      1665      1288
 -1     10413    3    0    1
 -2      1855      1342      1856      1343
 -1     10414    3    0    1
 -2      1342      1855      1856      2011
 -1     10415    3    0    1
 -2      1534      1505      1923      2024
 -1     10416    3    0    1
 -2      1534       551      1505      2024
 -1     10417    3    0    1
 -2      1629      1923      1505      2024
 -1     10418    3    0    1
 -2      1629      1505       551      2024
 -1     10419    3    0    1
 -2      2023      1347      1830      2025
 -1     10420    3    0    1
 -2      1346      1830      1347      2025
 -1     10421    3    0    1
 -2      1711      1295      1288      1294
 -1     10422    3    0    1
 -2      2023      1830      1456      2025
 -1     10423    3    0    1
 -2      1830      1012      1456      2025
 -1     10424    3    0    1
 -2      1682      1302      1301      2030
 -1     10425    3    0    1
 -2      1682      1012      1830      2030
 -1     10426    3    0    1
 -2       240      1013      1308      2026
 -1     10427    3    0    1
 -2       240       193      1013      2026
 -1     10428    3    0    1
 -2      2025       194      1346      2032
 -1     10429    3    0    1
 -2      1013      1012      1682      2030
 -1     10430    3    0    1
 -2       194      1345      1346      2032
 -1     10431    3    0    1
 -2      1260      1379      1724      2027
 -1     10432    3    0    1
 -2      1266      1267      1396      2027
 -1     10433    3    0    1
 -2      1260      1267      1266      2027
 -1     10434    3    0    1
 -2      1260      1253      1379      2027
 -1     10435    3    0    1
 -2      1253      1423      1379      2027
 -1     10436    3    0    1
 -2       580      1576      1618      2028
 -1     10437    3    0    1
 -2       580       581       587      2028
 -1     10438    3    0    1
 -2       580      1618       581      2028
 -1     10439    3    0    1
 -2       581       588       587      2028
 -1     10440    3    0    1
 -2       581      1618       588      2028
 -1     10441    3    0    1
 -2      1239      1477      1238      1232
 -1     10442    3    0    1
 -2      1345      1830      2032      2030
 -1     10443    3    0    1
 -2      1830      1345      2032      1346
 -1     10444    3    0    1
 -2      1713      2052       495      1969
 -1     10445    3    0    1
 -2      1450      1239      1238      1245
 -1     10446    3    0    1
 -2      2025      1012       194      2032
 -1     10447    3    0    1
 -2      2030      1013      1012      2032
 -1     10448    3    0    1
 -2       623      1535      1506      2031
 -1     10449    3    0    1
 -2      1459       622      1506      2031
 -1     10450    3    0    1
 -2      1459      1506      1913      2031
 -1     10451    3    0    1
 -2       622      1459      1488      2031
 -1     10452    3    0    1
 -2      1488      1459      1913      2031
 -1     10453    3    0    1
 -2      1450      1239      1245      1246
 -1     10454    3    0    1
 -2      2025      1346      1830      2032
 -1     10455    3    0    1
 -2      2030      1012      1830      2032
 -1     10456    3    0    1
 -2      2025      1830      1012      2032
 -1     10457    3    0    1
 -2      1568      1595       638      2033
 -1     10458    3    0    1
 -2       645       646      1568      2033
 -1     10459    3    0    1
 -2       639       646       645      2033
 -1     10460    3    0    1
 -2      1568       638       645      2033
 -1     10461    3    0    1
 -2       638       639       645      2033
 -1     10462    3    0    1
 -2      1433      1232      1225      2034
 -1     10463    3    0    1
 -2      1225      1460      1433      2034
 -1     10464    3    0    1
 -2      1845      1433      1460      2034
 -1     10465    3    0    1
 -2      1218      1507      1460      2034
 -1     10466    3    0    1
 -2      1460      1225      1218      2034
 -1     10467    3    0    1
 -2      1459      1710       621      2035
 -1     10468    3    0    1
 -2      1911      1710      1459      2035
 -1     10469    3    0    1
 -2      1365       621      1710      2035
 -1     10470    3    0    1
 -2      1365      1710      1911      2035
 -1     10471    3    0    1
 -2      1155      1161      1154      2036
 -1     10472    3    0    1
 -2      1155      1162      1161      2036
 -1     10473    3    0    1
 -2      1161      1162      1645      2036
 -1     10474    3    0    1
 -2      1155      1603      1162      2036
 -1     10475    3    0    1
 -2      1162      1603      1645      2036
 -1     10476    3    0    1
 -2       574      1644      1618      2037
 -1     10477    3    0    1
 -2      1618      1644      1921      2037
 -1     10478    3    0    1
 -2       574       566      1644      2037
 -1     10479    3    0    1
 -2       573       566       574      2037
 -1     10480    3    0    1
 -2      1842      1450      1407      2038
 -1     10481    3    0    1
 -2      1239      1477      2038      1450
 -1     10482    3    0    1
 -2       716      1371      1399      1952
 -1     10483    3    0    1
 -2      1448       572      1475       571
 -1     10484    3    0    1
 -2      1448       572       571       579
 -1     10485    3    0    1
 -2      1536      1849      1564      2039
 -1     10486    3    0    1
 -2      1175      1592      1183      1182
 -1     10487    3    0    1
 -2      1592      1175      1183      1853
 -1     10488    3    0    1
 -2      1591      1518      1917      1563
 -1     10489    3    0    1
 -2      1564      1197      1519      2041
 -1     10490    3    0    1
 -2       625      1595       632       631
 -1     10491    3    0    1
 -2      1190      1197      1196      2041
 -1     10492    3    0    1
 -2      1169      1619      1645      2042
 -1     10493    3    0    1
 -2      1619      1169      1645      1168
 -1     10494    3    0    1
 -2      1548      1190      1592      2041
 -1     10495    3    0    1
 -2      1548      1592      1850      2041
 -1     10496    3    0    1
 -2      1577      1854      1619      2042
 -1     10497    3    0    1
 -2       493      1725      1315      1971
 -1     10498    3    0    1
 -2      2047       503       253      2013
 -1     10499    3    0    1
 -2      1645      1619      1854      2042
 -1     10500    3    0    1
 -2       628      1459       635      2043
 -1     10501    3    0    1
 -2       635      1459      1432      2043
 -1     10502    3    0    1
 -2      1432      1459      1908      2043
 -1     10503    3    0    1
 -2       627       635       634      2043
 -1     10504    3    0    1
 -2       627       634      1710      2043
 -1     10505    3    0    1
 -2      1971      1320      1315      2044
 -1     10506    3    0    1
 -2       242      1313      1314      2044
 -1     10507    3    0    1
 -2      1148      1701      1147      1141
 -1     10508    3    0    1
 -2       242      1314      1315      2044
 -1     10509    3    0    1
 -2       242      1315      1320      2044
 -1     10510    3    0    1
 -2      1369       502      1617       509
 -1     10511    3    0    1
 -2      1511      1582       660      1554
 -1     10512    3    0    1
 -2       502      1369      1617      1931
 -1     10513    3    0    1
 -2      1511      1582      1773      1540
 -1     10514    3    0    1
 -2      1430       731       732      1457
 -1     10515    3    0    1
 -2      1774      1568      1540      2046
 -1     10516    3    0    1
 -2       653      1568      1540       652
 -1     10517    3    0    1
 -2      1568       653      1540      2046
 -1     10518    3    0    1
 -2      1369      1932      2013      2047
 -1     10519    3    0    1
 -2      1412      1932      1369      2047
 -1     10520    3    0    1
 -2      1994       248      1946      2047
 -1     10521    3    0    1
 -2        28       504       503      2049
 -1     10522    3    0    1
 -2       493        94      1314      2048
 -1     10523    3    0    1
 -2      1315      1971      1314      2048
 -1     10524    3    0    1
 -2      1971       493      1314      2048
 -1     10525    3    0    1
 -2      1971      1315       493      2048
 -1     10526    3    0    1
 -2       493        12        94      2048
 -1     10527    3    0    1
 -2       241        94        12      2048
 -1     10528    3    0    1
 -2      1994        28       248      2049
 -1     10529    3    0    1
 -2       504        28      1994      2049
 -1     10530    3    0    1
 -2      1725       493      1315      2055
 -1     10531    3    0    1
 -2      1202      2067      1195      1445
 -1     10532    3    0    1
 -2       114      1705       357       113
 -1     10533    3    0    1
 -2      1818      1505      1458      2050
 -1     10534    3    0    1
 -2       114      1705       589       596
 -1     10535    3    0    1
 -2       114      1705       113       589
 -1     10536    3    0    1
 -2      1828      1827      1575      2057
 -1     10537    3    0    1
 -2      1590       530      1714       523
 -1     10538    3    0    1
 -2      1906       260      1905      1986
 -1     10539    3    0    1
 -2      1997       268      1939      2057
 -1     10540    3    0    1
 -2       273       268      2051      2057
 -1     10541    3    0    1
 -2       268       273       274      2057
 -1     10542    3    0    1
 -2      1969      1317      1751      2052
 -1     10543    3    0    1
 -2      1751      1317      1318      2052
 -1     10544    3    0    1
 -2      1949       275      1827      1801
 -1     10545    3    0    1
 -2      1299      1597      1292      1293
 -1     10546    3    0    1
 -2      1299      1597      1293      1300
 -1     10547    3    0    1
 -2      1299      1434      1461      2053
 -1     10548    3    0    1
 -2      1570      1434      1299      2053
 -1     10549    3    0    1
 -2      1570      1727      1434      2053
 -1     10550    3    0    1
 -2      1202      2067      1445      1201
 -1     10551    3    0    1
 -2       502       501        30      2054
 -1     10552    3    0    1
 -2       540      1487      1444       534
 -1     10553    3    0    1
 -2      1385      1684       531      1714
 -1     10554    3    0    1
 -2       493      1725      1971      1570
 -1     10555    3    0    1
 -2       493      1725      1570       494
 -1     10556    3    0    1
 -2       493      1725       494      2055
 -1     10557    3    0    1
 -2      1645      1169      1603      1162
 -1     10558    3    0    1
 -2      1658      1631       765       764
 -1     10559    3    0    1
 -2      1479      1509       446      1762
 -1     10560    3    0    1
 -2      1506       169       889       168
 -1     10561    3    0    1
 -2      1506       169       637       894
 -1     10562    3    0    1
 -2      1707      1578      1243      2056
 -1     10563    3    0    1
 -2      1707      1736      1578      2056
 -1     10564    3    0    1
 -2      1243      1578      1605      2056
 -1     10565    3    0    1
 -2      1736      1605      1578      2056
 -1     10566    3    0    1
 -2      1410      1437      1054      1055
 -1     10567    3    0    1
 -2       530      1590      1714      1927
 -1     10568    3    0    1
 -2      1437      1410      1054      1794
 -1     10569    3    0    1
 -2      1546       528      1590       521
 -1     10570    3    0    1
 -2       498       273       499      2064
 -1     10571    3    0    1
 -2       287       100       498      2066
 -1     10572    3    0    1
 -2      1493      1361      1026      2058
 -1     10573    3    0    1
 -2      1493      1801      1361      2058
 -1     10574    3    0    1
 -2      1361      1801      1985      2058
 -1     10575    3    0    1
 -2      1985      1019      1361      2058
 -1     10576    3    0    1
 -2      1985       277      1019      2058
 -1     10577    3    0    1
 -2      1801       277      1985      2058
 -1     10578    3    0    1
 -2      1739      1391      1632      2059
 -1     10579    3    0    1
 -2       625      1595      1804       632
 -1     10580    3    0    1
 -2      1739      1362      1391      2059
 -1     10581    3    0    1
 -2       625      1595       631      1622
 -1     10582    3    0    1
 -2       540       547      1444      2060
 -1     10583    3    0    1
 -2      1827      2051      2064      1575
 -1     10584    3    0    1
 -2      1517      1501      1471       527
 -1     10585    3    0    1
 -2      1517      1501       527      1546
 -1     10586    3    0    1
 -2      1827      2051      1575      2057
 -1     10587    3    0    1
 -2      1674      1228      1647      2061
 -1     10588    3    0    1
 -2      1674      1647      1741      2061
 -1     10589    3    0    1
 -2      1228      1605      1647      2061
 -1     10590    3    0    1
 -2      1605      1741      1647      2061
 -1     10591    3    0    1
 -2      1418      1208      1209      2062
 -1     10592    3    0    1
 -2      1208      1418      1659      2062
 -1     10593    3    0    1
 -2      1418      1743      1659      2062
 -1     10594    3    0    1
 -2      1445      1202      1201      2062
 -1     10595    3    0    1
 -2      1208      1201      1202      2062
 -1     10596    3    0    1
 -2      1546       520       513      2063
 -1     10597    3    0    1
 -2       520       519       513      2063
 -1     10598    3    0    1
 -2       520      1501       519      2063
 -1     10599    3    0    1
 -2       512       519      1501      2063
 -1     10600    3    0    1
 -2       513       519       512      2063
 -1     10601    3    0    1
 -2      2051       499       273      2064
 -1     10602    3    0    1
 -2      1979       287       286      2064
 -1     10603    3    0    1
 -2      1530       286       287      2064
 -1     10604    3    0    1
 -2      1583      1116      1555      2069
 -1     10605    3    0    1
 -2      1400      1531      1166      2065
 -1     10606    3    0    1
 -2      1531      1400      1166      1935
 -1     10607    3    0    1
 -2      1400      1166      1173      2065
 -1     10608    3    0    1
 -2      1116      1583      1555      1115
 -1     10609    3    0    1
 -2      1167      1166      1531      2065
 -1     10610    3    0    1
 -2      1167      1173      1166      2065
 -1     10611    3    0    1
 -2       278        47      1979      2066
 -1     10612    3    0    1
 -2      2064       287       498      2066
 -1     10613    3    0    1
 -2      2064      1979       287      2066
 -1     10614    3    0    1
 -2       498       278      2064      2066
 -1     10615    3    0    1
 -2      2064       278      1979      2066
 -1     10616    3    0    1
 -2      1687      1201      1445      2067
 -1     10617    3    0    1
 -2      1958       496      1604      1751
 -1     10618    3    0    1
 -2      1958       496      1751      1956
 -1     10619    3    0    1
 -2      1744      1472      1717      2067
 -1     10620    3    0    1
 -2      1472      1194      1717      2067
 -1     10621    3    0    1
 -2      1531       388      1991      2068
 -1     10622    3    0    1
 -2      1167      1531      1991      2068
 -1     10623    3    0    1
 -2      1531      1167      1174      2068
 -1     10624    3    0    1
 -2       393      1531      1174      2068
 -1     10625    3    0    1
 -2      1958       496      1956       497
 -1     10626    3    0    1
 -2      1787      1541      1583      2069
 -1     10627    3    0    1
 -2      1958       496       497      1604
 -1     10628    3    0    1
 -2       263      1828      1931      1939
 -1     10629    3    0    1
 -2      1512      1482      1782      2070
 -1     10630    3    0    1
 -2      1482      1512      1124      2070
 -1     10631    3    0    1
 -2      1482      1138      1132      1131
 -1     10632    3    0    1
 -2      1569      1096      1103      2071
 -1     10633    3    0    1
 -2      1096      1097      1103      2071
 -1     10634    3    0    1
 -2      1097      1096      1697      2071
 -1     10635    3    0    1
 -2      1103      1097      1104      2071
 -1     10636    3    0    1
 -2      1697      1104      1097      2071
 -1     10637    3    0    1
 -2      1497      1783      1526      2072
 -1     10638    3    0    1
 -2      1497      1526      1137      2072
 -1     10639    3    0    1
 -2      1482      1137      1526      2072
 -1     10640    3    0    1
 -2      1526      1783      1482      2072
 -1     10641    3    0    1
 -2      1089      1090      1096      2073
 -1     10642    3    0    1
 -2      1697      1096      1090      2073
 -1     10643    3    0    1
 -2      1090      1352      1697      2073
 -1     10644    3    0    1
 -2      1697      1352      1789      2073
 -1     10645    3    0    1
 -2      1497      1144      1143      2074
 -1     10646    3    0    1
 -2      1143      1151      1150      2074
 -1     10647    3    0    1
 -2      1143      1150      1497      2074
 -1     10648    3    0    1
 -2      1150      1151      1468      2074
 -1     10649    3    0    1
 -2      1497      1150      1468      2074
 -1     10650    3    0    1
 -2       263      1828      1939       268
 -1     10651    3    0    1
 -2      1482      1454      1781      2075
 -1     10652    3    0    1
 -2      1482      1138      1454      2075
 -1     10653    3    0    1
 -2       263      1828       264      1931
 -1     10654    3    0    1
 -2      1117      1668      1541      1110
 -1     10655    3    0    1
 -2      1382      1076      1069      2076
 -1     10656    3    0    1
 -2      1623      1382      1793      2076
 -1     10657    3    0    1
 -2      1793      1068      1623      2076
 -1     10658    3    0    1
 -2      1075      1382      1623      2076
 -1     10659    3    0    1
 -2      1068      1075      1623      2076
 -1     10660    3    0    1
 -2      1076      1075      1068      2076
 -1     10661    3    0    1
 -2      1076      1382      1075      2076
 -1     10662    3    0    1
 -2      1942       171       904      2077
 -1     10663    3    0    1
 -2       171       170       899      2077
 -1     10664    3    0    1
 -2       651       170       171      2077
 -1     10665    3    0    1
 -2       651       644       170      2077
 -1     10666    3    0    1
 -2       899       170       644      2077
 -1     10667    3    0    1
 -2      1567      1015      1989      2078
 -1     10668    3    0    1
 -2      1989      1905      1567      2078
 -1     10669    3    0    1
 -2      1905      1906      1567      2078
 -1     10670    3    0    1
 -2      1593      1737      1620      2079
 -1     10671    3    0    1
 -2      1249      1248      1620      2079
 -1     10672    3    0    1
 -2      1620      1248      1593      2079
 -1     10673    3    0    1
 -2      1248      1249      1255      2079
 -1     10674    3    0    1
 -2      1593      1248      1255      2079
 -1     10675    3    0    1
 -2      1716       730      1387      1761
 -1     10676    3    0    1
 -2       730      1716      1387       737
 -3
    1PSTEP                         1           1           1          
  100CL  101 1.000000000        2060                     0    1           1
 -4  DISP        4    1
 -5  D1          1    2    1    0
 -5  D2          1    2    2    0
 -5  D3          1    2    3    0
 -5  ALL         1    2    0    0    1ALL
 -1         3-1.85600E-04-1.50049E-03 1.40371E-04
 -1         4-2.63831E-04-1.56802E-03-4.57086E-05
 -1         6-2.66523E-04-1.00962E-03 1.74173E-04
 -1         8-3.72031E-04-1.20362E-03 1.13719E-05
 -1        12 0.00000E+00 0.00000E+00 0.00000E+00
 -1        14 4.06636E-06-1.56926E-05-4.55057E-06
 -1        18 0.00000E+00 0.00000E+00 0.00000E+00
 -1        22 0.00000E+00 0.00000E+00 0.00000E+00
 -1        28-1.96869E-04-1.42675E-03 1.29250E-04
 -1        29-1.99766E-04-1.42732E-03 9.99469E-05
 -1        30-2.08238E-04-1.40743E-03 7.84795E-05
 -1        31-2.14244E-04-1.43349E-03 4.89018E-05
 -1        32-2.29325E-04-1.43257E-03 2.93133E-05
 -1        33-2.42638E-04-1.44675E-03 7.72261E-06
 -1        34-2.50494E-04-1.46654E-03-1.33020E-05
 -1        35-2.52816E-04-1.08206E-03 1.79814E-04
 -1        36-2.41350E-04-1.13821E-03 1.63741E-04
 -1        37-2.37616E-04-1.20935E-03 1.52000E-04
 -1        38-2.28344E-04-1.28044E-03 1.47694E-04
 -1        39-2.12885E-04-1.35802E-03 1.47448E-04
 -1        40-3.45483E-04-1.09170E-03 2.08056E-05
 -1        41-3.17341E-04-1.04962E-03 4.60861E-05
 -1        42-2.70335E-04-9.61140E-04 6.02478E-05
 -1        43-1.83423E-04-8.05926E-04 7.31994E-05
 -1        44 0.00000E+00 0.00000E+00 0.00000E+00
 -1        45-1.25444E-04-7.27935E-04 1.69845E-04
 -1        46-2.42392E-04-9.15732E-04 1.54644E-04
 -1        47-2.74139E-04-1.44176E-03-2.91752E-05
 -1        48-2.93230E-04-1.36563E-03-1.93714E-05
 -1        49-3.09832E-04-1.29588E-03-1.16188E-05
 -1        50-3.27751E-04-1.24846E-03-1.30130E-05
 -1        51-3.47735E-04-1.20573E-03-9.68603E-06
 -1        52-4.12909E-04-1.10223E-03 5.67022E-05
 -1        53-4.81395E-04-1.04065E-03 8.37285E-05
 -1        54-5.45493E-04-9.99719E-04 1.02524E-04
 -1        55-6.07752E-04-9.69361E-04 1.15092E-04
 -1        56-6.59955E-04-9.45418E-04 1.18871E-04
 -1        57-7.06088E-04-9.25925E-04 1.23536E-04
 -1        58-7.46235E-04-9.11033E-04 1.27651E-04
 -1        59-7.79446E-04-8.95296E-04 1.30828E-04
 -1        60-8.06208E-04-8.79889E-04 1.34010E-04
 -1        61-8.25639E-04-8.66213E-04 1.34871E-04
 -1        62-8.40496E-04-8.50424E-04 1.35952E-04
 -1        63-8.48830E-04-8.36171E-04 1.35978E-04
 -1        64-8.52657E-04-8.20156E-04 1.35073E-04
 -1        65-8.49775E-04-8.03120E-04 1.34266E-04
 -1        66-8.43256E-04-7.86569E-04 1.30980E-04
 -1        67-8.31420E-04-7.67853E-04 1.27878E-04
 -1        68-8.15680E-04-7.49557E-04 1.24163E-04
 -1        69-7.96725E-04-7.29739E-04 1.19815E-04
 -1        70-7.73123E-04-7.09569E-04 1.15466E-04
 -1        71-7.47684E-04-6.88713E-04 1.09153E-04
 -1        72-7.18466E-04-6.67070E-04 1.03033E-04
 -1        73-6.86868E-04-6.45384E-04 9.67024E-05
 -1        74-6.52563E-04-6.22837E-04 8.94909E-05
 -1        75-6.17019E-04-5.99078E-04 8.16973E-05
 -1        76-5.79752E-04-5.75208E-04 7.44314E-05
 -1        77-5.41484E-04-5.50272E-04 6.63918E-05
 -1        78-5.02098E-04-5.24599E-04 5.83623E-05
 -1        79-4.62186E-04-4.98647E-04 5.02174E-05
 -1        80-4.22232E-04-4.71890E-04 4.20325E-05
 -1        81-3.82215E-04-4.44325E-04 3.37736E-05
 -1        82-3.42661E-04-4.16318E-04 2.58174E-05
 -1        83-3.03848E-04-3.87512E-04 1.76497E-05
 -1        84-2.65974E-04-3.57670E-04 9.69891E-06
 -1        85-2.29654E-04-3.27713E-04 2.23001E-06
 -1        86-1.95450E-04-2.97410E-04-5.39897E-06
 -1        87-1.63176E-04-2.66284E-04-1.14718E-05
 -1        88-1.33486E-04-2.34749E-04-1.81872E-05
 -1        89-1.06054E-04-2.02135E-04-2.34479E-05
 -1        90-8.19062E-05-1.70338E-04-2.88601E-05
 -1        91-6.11409E-05-1.37630E-04-3.27400E-05
 -1        92-4.47942E-05-1.05932E-04-3.27033E-05
 -1        93-3.26082E-05-7.37286E-05-2.95711E-05
 -1        94-2.29526E-05-4.06760E-05-2.06177E-05
 -1        95 0.00000E+00 0.00000E+00 0.00000E+00
 -1        96 0.00000E+00 0.00000E+00 0.00000E+00
 -1        97 0.00000E+00 0.00000E+00 0.00000E+00
 -1        98 0.00000E+00 0.00000E+00 0.00000E+00
 -1        99 0.00000E+00 0.00000E+00 0.00000E+00
 -1       100-3.44498E-04-1.46222E-03 6.27078E-06
 -1       101-4.15312E-04-1.39260E-03 2.65129E-05
 -1       102-4.85304E-04-1.33552E-03 4.28243E-05
 -1       103-5.46632E-04-1.28289E-03 5.42479E-05
 -1       104-6.01831E-04-1.22762E-03 6.56735E-05
 -1       105-6.51040E-04-1.17693E-03 7.23428E-05
 -1       106-6.92905E-04-1.12415E-03 7.91521E-05
 -1       107-7.27154E-04-1.07442E-03 8.67821E-05
 -1       108-7.53755E-04-1.02599E-03 9.14301E-05
 -1       109-7.74613E-04-9.76226E-04 9.67322E-05
 -1       110-7.89608E-04-9.29919E-04 9.87115E-05
 -1       111-7.98488E-04-8.82637E-04 1.00919E-04
 -1       112-8.02652E-04-8.37670E-04 1.02919E-04
 -1       113-8.00381E-04-7.94114E-04 1.02220E-04
 -1       114-7.94272E-04-7.51651E-04 1.03269E-04
 -1       115-7.83287E-04-7.09228E-04 1.02727E-04
 -1       116-7.67002E-04-6.68552E-04 9.98204E-05
 -1       117-7.48656E-04-6.29067E-04 9.84119E-05
 -1       118-7.25372E-04-5.90659E-04 9.48475E-05
 -1       119-6.99356E-04-5.52267E-04 9.14307E-05
 -1       120-6.70983E-04-5.16522E-04 8.76099E-05
 -1       121-6.39754E-04-4.80782E-04 8.25180E-05
 -1       122-6.06303E-04-4.46661E-04 7.74496E-05
 -1       123-5.71076E-04-4.14373E-04 7.23921E-05
 -1       124-5.33998E-04-3.82413E-04 6.65108E-05
 -1       125-4.96180E-04-3.51862E-04 6.08389E-05
 -1       126-4.57139E-04-3.22711E-04 5.47286E-05
 -1       127-4.17571E-04-2.94355E-04 4.86432E-05
 -1       128-3.77851E-04-2.67158E-04 4.25056E-05
 -1       129-3.38351E-04-2.41279E-04 3.62020E-05
 -1       130-2.99109E-04-2.16348E-04 3.00281E-05
 -1       131-2.60901E-04-1.92623E-04 2.40132E-05
 -1       132-2.23379E-04-1.70274E-04 1.80747E-05
 -1       133-1.87551E-04-1.48732E-04 1.24923E-05
 -1       134-1.53650E-04-1.29174E-04 7.45595E-06
 -1       135-1.21436E-04-1.09868E-04 1.79974E-06
 -1       136-9.22759E-05-9.17089E-05-2.38995E-06
 -1       137-6.43864E-05-7.51719E-05-6.67328E-06
 -1       138-4.12092E-05-5.98436E-05-1.04368E-05
 -1       139-2.21856E-05-4.82583E-05-1.28920E-05
 -1       140-5.68964E-06-3.64000E-05-1.46052E-05
 -1       141 5.06609E-06-2.60128E-05-1.26596E-05
 -1       142 7.61462E-06-1.95762E-05-1.04480E-05
 -1       143 0.00000E+00 0.00000E+00 0.00000E+00
 -1       144 0.00000E+00 0.00000E+00 0.00000E+00
 -1       145 0.00000E+00 0.00000E+00 0.00000E+00
 -1       146 0.00000E+00 0.00000E+00 0.00000E+00
 -1       147 0.00000E+00 0.00000E+00 0.00000E+00
 -1       148 0.00000E+00 0.00000E+00 0.00000E+00
 -1       149 0.00000E+00 0.00000E+00 0.00000E+00
 -1       150-2.99035E-04-1.39633E-03 1.29828E-04
 -1       151-3.87210E-04-1.32389E-03 1.33366E-04
 -1       152-4.69311E-04-1.26675E-03 1.40917E-04
 -1       153-5.39577E-04-1.21414E-03 1.53576E-04
 -1       154-6.03336E-04-1.16329E-03 1.64310E-04
 -1       155-6.54405E-04-1.11643E-03 1.74833E-04
 -1       156-6.97686E-04-1.07017E-03 1.83686E-04
 -1       157-7.33422E-04-1.02763E-03 1.90330E-04
 -1       158-7.60729E-04-9.87632E-04 1.96329E-04
 -1       159-7.80683E-04-9.46838E-04 1.98953E-04
 -1       160-7.95793E-04-9.08474E-04 2.00817E-04
 -1       161-8.03673E-04-8.68328E-04 2.01051E-04
 -1       162-8.08049E-04-8.31221E-04 2.01398E-04
 -1       163-8.05282E-04-7.94583E-04 2.00664E-04
 -1       164-7.98719E-04-7.57419E-04 1.97357E-04
 -1       165-7.86801E-04-7.22413E-04 1.94231E-04
 -1       166-7.70972E-04-6.87031E-04 1.90550E-04
 -1       167-7.52056E-04-6.52923E-04 1.85965E-04
 -1       168-7.28339E-04-6.19500E-04 1.81603E-04
 -1       169-7.02687E-04-5.86831E-04 1.75438E-04
 -1       170-6.73614E-04-5.54672E-04 1.69378E-04
 -1       171-6.42124E-04-5.22570E-04 1.63011E-04
 -1       172-6.07812E-04-4.91380E-04 1.55699E-04
 -1       173-5.72306E-04-4.61431E-04 1.47923E-04
 -1       174-5.35007E-04-4.31463E-04 1.40649E-04
 -1       175-4.96760E-04-4.02632E-04 1.32592E-04
 -1       176-4.57284E-04-3.74510E-04 1.24548E-04
 -1       177-4.17382E-04-3.46726E-04 1.16385E-04
 -1       178-3.77415E-04-3.19750E-04 1.08219E-04
 -1       179-3.37424E-04-2.93572E-04 1.00001E-04
 -1       180-2.97869E-04-2.67819E-04 9.21048E-05
 -1       181-2.59138E-04-2.42869E-04 8.40033E-05
 -1       182-2.21310E-04-2.18880E-04 7.62130E-05
 -1       183-1.84908E-04-1.95028E-04 6.88484E-05
 -1       184-1.50868E-04-1.71923E-04 6.13359E-05
 -1       185-1.18370E-04-1.49591E-04 5.54554E-05
 -1       186-8.87635E-05-1.28153E-04 4.86186E-05
 -1       187-6.11386E-05-1.08384E-04 4.30757E-05
 -1       188-3.72060E-05-8.81886E-05 3.67605E-05
 -1       189-1.66027E-05-7.06716E-05 3.08624E-05
 -1       190-4.78719E-07-5.25548E-05 2.62282E-05
 -1       191 8.73664E-06-3.64414E-05 2.01934E-05
 -1       192 1.32964E-05-2.14783E-05 1.24273E-05
 -1       193 0.00000E+00 0.00000E+00 0.00000E+00
 -1       194 0.00000E+00 0.00000E+00 0.00000E+00
 -1       195 0.00000E+00 0.00000E+00 0.00000E+00
 -1       196 0.00000E+00 0.00000E+00 0.00000E+00
 -1       197 0.00000E+00 0.00000E+00 0.00000E+00
 -1       198-3.59378E-04-9.37764E-04 9.85685E-05
 -1       199-4.50737E-04-8.88018E-04 8.23358E-05
 -1       200-5.31740E-04-8.63233E-04 8.68709E-05
 -1       201-5.95470E-04-8.52581E-04 1.01573E-04
 -1       202-6.48512E-04-8.48668E-04 1.18551E-04
 -1       203-6.97244E-04-8.44834E-04 1.30092E-04
 -1       204-7.37910E-04-8.44468E-04 1.40000E-04
 -1       205-7.71568E-04-8.41262E-04 1.50074E-04
 -1       206-7.98022E-04-8.37106E-04 1.56471E-04
 -1       207-8.18728E-04-8.34256E-04 1.62682E-04
 -1       208-8.33729E-04-8.27367E-04 1.65327E-04
 -1       209-8.42567E-04-8.21735E-04 1.67778E-04
 -1       210-8.46605E-04-8.13665E-04 1.70054E-04
 -1       211-8.44294E-04-8.03713E-04 1.69110E-04
 -1       212-8.38495E-04-7.92618E-04 1.70112E-04
 -1       213-8.27124E-04-7.81113E-04 1.69578E-04
 -1       214-8.10847E-04-7.68068E-04 1.66675E-04
 -1       215-7.92229E-04-7.54003E-04 1.65041E-04
 -1       216-7.69159E-04-7.38371E-04 1.61757E-04
 -1       217-7.43389E-04-7.23075E-04 1.58423E-04
 -1       218-7.14862E-04-7.05088E-04 1.54477E-04
 -1       219-6.83607E-04-6.87043E-04 1.49358E-04
 -1       220-6.50161E-04-6.67404E-04 1.44275E-04
 -1       221-6.14947E-04-6.45955E-04 1.39203E-04
 -1       222-5.77858E-04-6.24196E-04 1.33292E-04
 -1       223-5.40047E-04-6.01015E-04 1.27637E-04
 -1       224-5.01001E-04-5.76433E-04 1.21525E-04
 -1       225-4.61423E-04-5.50971E-04 1.15442E-04
 -1       226-4.21788E-04-5.24354E-04 1.09353E-04
 -1       227-3.82217E-04-4.96607E-04 1.03022E-04
 -1       228-3.42949E-04-4.67840E-04 9.69814E-05
 -1       229-3.04736E-04-4.37782E-04 9.10185E-05
 -1       230-2.67160E-04-4.06408E-04 8.51803E-05
 -1       231-2.31256E-04-3.74396E-04 7.97630E-05
 -1       232-1.97188E-04-3.40489E-04 7.49053E-05
 -1       233-1.64952E-04-3.06474E-04 6.94863E-05
 -1       234-1.35585E-04-2.71694E-04 6.53363E-05
 -1       235-1.08135E-04-2.34782E-04 6.07691E-05
 -1       236-8.48178E-05-1.98480E-04 5.63942E-05
 -1       237-6.52831E-05-1.60507E-04 5.19834E-05
 -1       238-4.76167E-05-1.23332E-04 4.66031E-05
 -1       239-3.37406E-05-8.62435E-05 4.00814E-05
 -1       240-2.03870E-05-4.75981E-05 3.03335E-05
 -1       241 0.00000E+00 0.00000E+00 0.00000E+00
 -1       242 0.00000E+00 0.00000E+00 0.00000E+00
 -1       243 0.00000E+00 0.00000E+00 0.00000E+00
 -1       244 0.00000E+00 0.00000E+00 0.00000E+00
 -1       245 0.00000E+00 0.00000E+00 0.00000E+00
 -1       246 0.00000E+00 0.00000E+00 0.00000E+00
 -1       247 0.00000E+00 0.00000E+00 0.00000E+00
 -1       248-2.14442E-04-1.33118E-03 1.26025E-04
 -1       249-2.26250E-04-1.24014E-03 1.26309E-04
 -1       250-2.32124E-04-1.16170E-03 1.29488E-04
 -1       251-2.32344E-04-1.07457E-03 1.39555E-04
 -1       252-2.26522E-04-9.85008E-04 1.51252E-04
 -1       253-2.17907E-04-1.30941E-03 1.05175E-04
 -1       254-2.23767E-04-1.22889E-03 1.05958E-04
 -1       255-2.25962E-04-1.14854E-03 1.08935E-04
 -1       256-2.12571E-04-1.04089E-03 1.12152E-04
 -1       257-1.95287E-04-9.32863E-04 1.27733E-04
 -1       258-2.21416E-04-1.31082E-03 8.04292E-05
 -1       259-2.24397E-04-1.23018E-03 8.39224E-05
 -1       260-2.20941E-04-1.14012E-03 8.49809E-05
 -1       261-2.02059E-04-1.02741E-03 7.95259E-05
 -1       262-1.66276E-04-8.27325E-04 7.63663E-05
 -1       263-2.30145E-04-1.31450E-03 5.72253E-05
 -1       264-2.33981E-04-1.23388E-03 5.84630E-05
 -1       265-2.33198E-04-1.15528E-03 5.87118E-05
 -1       266-2.27830E-04-1.07080E-03 5.31123E-05
 -1       267-2.18576E-04-9.46709E-04 5.13482E-05
 -1       268-2.44033E-04-1.32758E-03 3.61427E-05
 -1       269-2.52684E-04-1.25440E-03 3.59672E-05
 -1       270-2.58153E-04-1.18660E-03 3.93453E-05
 -1       271-2.62387E-04-1.10823E-03 3.53625E-05
 -1       272-2.65024E-04-1.02983E-03 3.75763E-05
 -1       273-2.59619E-04-1.35407E-03 1.35899E-05
 -1       274-2.69729E-04-1.27826E-03 1.70750E-05
 -1       275-2.81178E-04-1.20555E-03 1.96004E-05
 -1       276-2.93411E-04-1.14577E-03 1.97383E-05
 -1       277-3.03081E-04-1.08647E-03 2.54019E-05
 -1       278-2.69173E-04-1.37797E-03-4.78484E-06
 -1       279-2.83086E-04-1.30723E-03 7.48645E-08
 -1       280-2.98954E-04-1.24963E-03 6.06917E-06
 -1       281-3.12574E-04-1.18671E-03 7.83050E-06
 -1       282-3.26137E-04-1.13023E-03 1.22717E-05
 -1       283-4.01251E-04-1.14635E-03 4.57121E-05
 -1       284-3.91357E-04-1.19411E-03 3.48748E-05
 -1       285-3.81183E-04-1.24667E-03 2.66159E-05
 -1       286-3.70663E-04-1.30719E-03 1.99064E-05
 -1       287-3.59913E-04-1.37811E-03 1.37857E-05
 -1       288-4.72071E-04-1.09895E-03 7.10455E-05
 -1       289-4.61542E-04-1.15228E-03 6.14170E-05
 -1       290-4.51665E-04-1.20413E-03 5.06364E-05
 -1       291-4.42357E-04-1.26444E-03 4.22311E-05
 -1       292-4.31661E-04-1.32659E-03 3.28965E-05
 -1       293-5.37539E-04-1.05504E-03 9.18505E-05
 -1       294-5.27953E-04-1.10915E-03 8.03286E-05
 -1       295-5.17997E-04-1.16234E-03 6.89912E-05
 -1       296-5.09577E-04-1.21896E-03 5.94751E-05
 -1       297-4.97888E-04-1.27595E-03 4.98426E-05
 -1       298-6.00287E-04-1.01848E-03 1.03988E-04
 -1       299-5.90512E-04-1.07174E-03 9.22805E-05
 -1       300-5.82625E-04-1.12207E-03 8.08851E-05
 -1       301-5.71256E-04-1.17406E-03 7.12786E-05
 -1       302-5.59717E-04-1.22756E-03 6.14559E-05
 -1       303-6.53673E-04-9.91703E-04 1.10398E-04
 -1       304-6.46951E-04-1.03921E-03 9.99306E-05
 -1       305-6.38104E-04-1.08487E-03 9.00958E-05
 -1       306-6.28055E-04-1.13326E-03 8.03888E-05
 -1       307-6.16158E-04-1.18033E-03 7.19228E-05
 -1       308-7.00973E-04-9.66722E-04 1.15691E-04
 -1       309-6.94204E-04-1.00901E-03 1.06286E-04
 -1       310-6.86206E-04-1.04985E-03 9.71430E-05
 -1       311-6.76500E-04-1.09243E-03 8.80095E-05
 -1       312-6.64654E-04-1.13390E-03 7.96754E-05
 -1       313-7.41803E-04-9.45529E-04 1.20136E-04
 -1       314-7.33332E-04-9.81325E-04 1.10933E-04
 -1       315-7.27437E-04-1.01701E-03 1.02724E-04
 -1       316-7.16376E-04-1.05384E-03 9.43504E-05
 -1       317-7.05489E-04-1.08918E-03 8.61075E-05
 -1       318-7.74058E-04-9.24272E-04 1.23520E-04
 -1       319-7.67536E-04-9.54337E-04 1.14844E-04
 -1       320-7.58516E-04-9.84452E-04 1.07397E-04
 -1       321-7.50252E-04-1.01512E-03 1.00251E-04
 -1       322-7.38963E-04-1.04518E-03 9.23963E-05
 -1       323-8.00523E-04-9.03678E-04 1.26269E-04
 -1       324-7.94635E-04-9.28191E-04 1.18274E-04
 -1       325-7.86793E-04-9.52949E-04 1.10640E-04
 -1       326-7.76558E-04-9.77447E-04 1.04032E-04
 -1       327-7.66590E-04-1.00235E-03 9.66983E-05
 -1       328-8.21890E-04-8.83530E-04 1.28185E-04
 -1       329-8.16120E-04-9.02685E-04 1.20947E-04
 -1       330-8.08256E-04-9.21660E-04 1.13929E-04
 -1       331-7.98230E-04-9.40940E-04 1.07581E-04
 -1       332-7.87917E-04-9.59388E-04 1.01329E-04
 -1       333-8.35849E-04-8.63641E-04 1.29201E-04
 -1       334-8.28635E-04-8.76592E-04 1.22491E-04
 -1       335-8.20964E-04-8.90830E-04 1.16079E-04
 -1       336-8.12804E-04-9.04102E-04 1.10401E-04
 -1       337-8.01854E-04-9.17002E-04 1.04354E-04
 -1       338-8.43999E-04-8.42877E-04 1.30230E-04
 -1       339-8.37759E-04-8.51576E-04 1.23194E-04
 -1       340-8.30503E-04-8.59668E-04 1.17696E-04
 -1       341-8.20673E-04-8.68573E-04 1.11895E-04
 -1       342-8.10674E-04-8.76162E-04 1.05666E-04
 -1       343-8.47163E-04-8.21810E-04 1.29990E-04
 -1       344-8.40086E-04-8.25481E-04 1.23962E-04
 -1       345-8.32237E-04-8.28962E-04 1.17959E-04
 -1       346-8.24100E-04-8.32715E-04 1.13077E-04
 -1       347-8.13565E-04-8.35911E-04 1.07233E-04
 -1       348-8.44839E-04-7.99889E-04 1.28764E-04
 -1       349-8.37537E-04-7.99252E-04 1.23137E-04
 -1       350-8.30422E-04-7.98524E-04 1.17943E-04
 -1       351-8.22038E-04-7.97866E-04 1.12966E-04
 -1       352-8.11235E-04-7.96421E-04 1.07303E-04
 -1       353-8.37812E-04-7.78967E-04 1.26540E-04
 -1       354-8.31487E-04-7.73553E-04 1.21397E-04
 -1       355-8.23688E-04-7.68426E-04 1.16522E-04
 -1       356-8.14998E-04-7.62702E-04 1.11766E-04
 -1       357-8.04595E-04-7.57439E-04 1.07072E-04
 -1       358-8.25974E-04-7.56956E-04 1.23592E-04
 -1       359-8.19437E-04-7.47488E-04 1.18738E-04
 -1       360-8.11125E-04-7.38105E-04 1.14508E-04
 -1       361-8.03230E-04-7.28667E-04 1.10405E-04
 -1       362-7.93400E-04-7.19439E-04 1.05737E-04
 -1       363-8.10298E-04-7.34930E-04 1.20622E-04
 -1       364-8.03339E-04-7.21468E-04 1.16007E-04
 -1       365-7.96294E-04-7.08715E-04 1.11686E-04
 -1       366-7.87229E-04-6.95552E-04 1.07889E-04
 -1       367-7.78144E-04-6.82703E-04 1.03305E-04
 -1       368-7.90608E-04-7.11915E-04 1.16446E-04
 -1       369-7.83918E-04-6.95295E-04 1.12125E-04
 -1       370-7.75705E-04-6.79000E-04 1.08332E-04
 -1       371-7.67887E-04-6.63035E-04 1.04890E-04
 -1       372-7.58407E-04-6.46386E-04 1.01076E-04
 -1       373-7.67397E-04-6.88450E-04 1.11699E-04
 -1       374-7.60276E-04-6.68836E-04 1.07917E-04
 -1       375-7.53230E-04-6.49760E-04 1.04321E-04
 -1       376-7.44552E-04-6.30665E-04 1.01241E-04
 -1       377-7.35698E-04-6.10955E-04 9.76080E-05
 -1       378-7.41278E-04-6.65042E-04 1.06346E-04
 -1       379-7.34636E-04-6.42741E-04 1.02982E-04
 -1       380-7.26903E-04-6.20655E-04 9.97474E-05
 -1       381-7.18598E-04-5.98347E-04 9.67293E-05
 -1       382-7.09361E-04-5.76028E-04 9.38227E-05
 -1       383-7.11919E-04-6.41221E-04 1.00192E-04
 -1       384-7.04928E-04-6.16308E-04 9.71930E-05
 -1       385-6.96942E-04-5.91646E-04 9.46459E-05
 -1       386-6.89179E-04-5.66966E-04 9.22181E-05
 -1       387-6.80243E-04-5.42207E-04 8.94831E-05
 -1       388-6.80091E-04-6.16712E-04 9.40805E-05
 -1       389-6.73013E-04-5.89878E-04 9.15273E-05
 -1       390-6.65756E-04-5.63200E-04 8.90274E-05
 -1       391-6.57365E-04-5.36383E-04 8.68656E-05
 -1       392-6.49072E-04-5.09452E-04 8.41802E-05
 -1       393-6.46050E-04-5.92160E-04 8.73211E-05
 -1       394-6.39321E-04-5.63362E-04 8.50333E-05
 -1       395-6.31393E-04-5.34755E-04 8.30941E-05
 -1       396-6.23769E-04-5.06311E-04 8.12496E-05
 -1       397-6.15278E-04-4.77385E-04 7.92256E-05
 -1       398-6.10316E-04-5.67182E-04 8.02725E-05
 -1       399-6.03331E-04-5.36700E-04 7.85073E-05
 -1       400-5.95862E-04-5.06460E-04 7.68707E-05
 -1       401-5.87988E-04-4.76517E-04 7.52530E-05
 -1       402-5.79653E-04-4.46051E-04 7.36612E-05
 -1       403-5.73119E-04-5.41964E-04 7.30726E-05
 -1       404-5.65716E-04-5.10118E-04 7.17045E-05
 -1       405-5.58493E-04-4.78717E-04 7.02059E-05
 -1       406-5.50500E-04-4.47502E-04 6.88144E-05
 -1       407-5.42592E-04-4.15602E-04 6.74717E-05
 -1       408-5.34365E-04-5.16162E-04 6.54425E-05
 -1       409-5.27107E-04-4.83492E-04 6.43417E-05
 -1       410-5.19542E-04-4.51073E-04 6.34314E-05
 -1       411-5.12017E-04-4.18741E-04 6.25395E-05
 -1       412-5.04144E-04-3.85934E-04 6.14964E-05
 -1       413-4.94984E-04-4.89883E-04 5.78366E-05
 -1       414-4.87654E-04-4.56775E-04 5.71821E-05
 -1       415-4.80281E-04-4.23669E-04 5.64373E-05
 -1       416-4.72618E-04-3.90706E-04 5.58615E-05
 -1       417-4.64991E-04-3.57380E-04 5.51434E-05
 -1       418-4.55039E-04-4.63593E-04 4.99841E-05
 -1       419-4.47743E-04-4.29937E-04 4.97189E-05
 -1       420-4.40245E-04-3.96519E-04 4.94030E-05
 -1       421-4.32815E-04-3.63184E-04 4.90938E-05
 -1       422-4.25258E-04-3.29489E-04 4.88083E-05
 -1       423-4.14736E-04-4.36828E-04 4.21023E-05
 -1       424-4.07274E-04-4.02977E-04 4.21639E-05
 -1       425-3.99892E-04-3.69504E-04 4.23038E-05
 -1       426-3.92493E-04-3.36173E-04 4.23851E-05
 -1       427-3.85176E-04-3.02320E-04 4.24693E-05
 -1       428-3.74756E-04-4.09484E-04 3.42855E-05
 -1       429-3.67297E-04-3.76040E-04 3.48468E-05
 -1       430-3.59831E-04-3.42707E-04 3.51325E-05
 -1       431-3.52626E-04-3.09726E-04 3.54746E-05
 -1       432-3.45410E-04-2.76032E-04 3.58860E-05
 -1       433-3.34974E-04-3.81948E-04 2.64708E-05
 -1       434-3.27389E-04-3.48973E-04 2.72920E-05
 -1       435-3.20178E-04-3.16335E-04 2.80600E-05
 -1       436-3.12998E-04-2.83768E-04 2.87973E-05
 -1       437-3.06005E-04-2.50623E-04 2.94595E-05
 -1       438-2.95921E-04-3.53899E-04 1.87617E-05
 -1       439-2.88419E-04-3.21972E-04 1.99890E-05
 -1       440-2.80940E-04-2.90025E-04 2.11244E-05
 -1       441-2.74127E-04-2.58544E-04 2.23075E-05
 -1       442-2.67183E-04-2.26120E-04 2.33006E-05
 -1       443-2.58038E-04-3.25740E-04 1.13720E-05
 -1       444-2.50395E-04-2.94755E-04 1.28091E-05
 -1       445-2.43268E-04-2.64131E-04 1.43399E-05
 -1       446-2.36269E-04-2.33524E-04 1.56647E-05
 -1       447-2.29714E-04-2.02408E-04 1.70154E-05
 -1       448-2.21614E-04-2.97256E-04 3.88357E-06
 -1       449-2.13760E-04-2.67718E-04 5.78502E-06
 -1       450-2.06529E-04-2.38393E-04 7.71448E-06
 -1       451-1.99649E-04-2.09311E-04 9.46178E-06
 -1       452-1.93589E-04-1.79681E-04 1.11479E-05
 -1       453-1.87085E-04-2.68228E-04-3.07979E-06
 -1       454-1.79532E-04-2.40486E-04-7.14073E-07
 -1       455-1.72062E-04-2.12890E-04 1.49736E-06
 -1       456-1.65638E-04-1.85590E-04 3.56015E-06
 -1       457-1.59233E-04-1.58024E-04 5.57735E-06
 -1       458-1.54677E-04-2.39341E-04-9.59815E-06
 -1       459-1.46720E-04-2.13423E-04-6.94830E-06
 -1       460-1.39799E-04-1.87892E-04-4.60283E-06
 -1       461-1.33145E-04-1.62612E-04-2.02374E-06
 -1       462-1.26911E-04-1.36819E-04 2.66253E-07
 -1       463-1.24435E-04-2.09829E-04-1.58459E-05
 -1       464-1.16859E-04-1.86399E-04-1.27448E-05
 -1       465-1.09234E-04-1.63056E-04-9.70079E-06
 -1       466-1.03210E-04-1.40569E-04-6.85455E-06
 -1       467-9.70883E-05-1.17045E-04-4.14937E-06
 -1       468-9.75285E-05-1.80088E-04-2.08129E-05
 -1       469-8.93264E-05-1.59127E-04-1.77184E-05
 -1       470-8.20319E-05-1.38455E-04-1.46538E-05
 -1       471-7.55207E-05-1.18285E-04-1.16228E-05
 -1       472-7.00183E-05-9.76059E-05-8.82652E-06
 -1       473-7.32436E-05-1.50442E-04-2.54361E-05
 -1       474-6.50849E-05-1.32372E-04-2.21339E-05
 -1       475-5.77506E-05-1.14474E-04-1.87772E-05
 -1       476-5.12651E-05-9.73384E-05-1.54819E-05
 -1       477-4.59237E-05-7.97273E-05-1.24085E-05
 -1       478-5.26780E-05-1.20795E-04-2.89523E-05
 -1       479-4.49138E-05-1.05362E-04-2.54057E-05
 -1       480-3.70637E-05-9.06884E-05-2.18327E-05
 -1       481-3.11959E-05-7.67638E-05-1.85823E-05
 -1       482-2.52843E-05-6.27184E-05-1.50329E-05
 -1       483-3.61183E-05-9.19020E-05-2.98561E-05
 -1       484-2.79553E-05-7.91188E-05-2.66690E-05
 -1       485-2.14502E-05-6.77708E-05-2.31624E-05
 -1       486-1.45957E-05-5.70813E-05-2.03204E-05
 -1       487-9.99473E-06-4.72114E-05-1.65399E-05
 -1       488-2.24995E-05-6.25975E-05-2.79876E-05
 -1       489-1.49136E-05-5.28683E-05-2.45812E-05
 -1       490-8.15290E-06-4.55869E-05-2.20702E-05
 -1       491-4.16958E-06-3.91699E-05-1.88102E-05
 -1       492 8.28263E-07-3.29011E-05-1.51507E-05
 -1       493-1.14902E-05-3.09193E-05-2.02736E-05
 -1       494-5.04202E-06-2.47875E-05-1.80924E-05
 -1       495-9.27999E-07-2.27874E-05-1.58840E-05
 -1       496 2.18799E-06-1.96749E-05-1.35227E-05
 -1       497 6.34046E-06-1.88340E-05-1.23430E-05
 -1       498-3.38379E-04-1.41902E-03 1.99594E-05
 -1       499-3.31612E-04-1.39175E-03 3.38450E-05
 -1       500-3.24290E-04-1.37423E-03 4.69257E-05
 -1       501-3.17740E-04-1.36809E-03 6.55238E-05
 -1       502-3.11128E-04-1.35834E-03 8.06319E-05
 -1       503-3.06596E-04-1.36210E-03 9.63087E-05
 -1       504-3.00520E-04-1.37231E-03 1.11572E-04
 -1       505-4.08334E-04-1.36814E-03 4.14443E-05
 -1       506-4.03898E-04-1.34627E-03 5.31837E-05
 -1       507-3.98370E-04-1.33102E-03 6.55319E-05
 -1       508-3.92659E-04-1.32173E-03 7.82573E-05
 -1       509-3.89020E-04-1.31467E-03 9.06160E-05
 -1       510-3.88078E-04-1.31537E-03 1.04627E-04
 -1       511-3.87303E-04-1.32048E-03 1.14822E-04
 -1       512-4.77472E-04-1.31702E-03 5.65578E-05
 -1       513-4.72907E-04-1.29998E-03 7.02376E-05
 -1       514-4.69691E-04-1.28716E-03 8.07987E-05
 -1       515-4.66585E-04-1.27678E-03 9.18403E-05
 -1       516-4.64338E-04-1.27105E-03 1.02419E-04
 -1       517-4.62639E-04-1.27027E-03 1.13004E-04
 -1       518-4.63850E-04-1.26972E-03 1.26768E-04
 -1       519-5.39425E-04-1.26768E-03 6.98999E-05
 -1       520-5.33855E-04-1.25323E-03 8.21768E-05
 -1       521-5.29985E-04-1.24163E-03 9.37281E-05
 -1       522-5.29291E-04-1.23160E-03 1.04788E-04
 -1       523-5.28293E-04-1.22595E-03 1.15009E-04
 -1       524-5.30111E-04-1.22264E-03 1.26780E-04
 -1       525-5.34125E-04-1.21989E-03 1.38408E-04
 -1       526-5.95846E-04-1.21857E-03 7.98670E-05
 -1       527-5.91438E-04-1.20669E-03 9.28040E-05
 -1       528-5.88633E-04-1.19687E-03 1.05090E-04
 -1       529-5.88313E-04-1.18710E-03 1.16086E-04
 -1       530-5.88831E-04-1.18143E-03 1.26700E-04
 -1       531-5.91373E-04-1.17645E-03 1.38134E-04
 -1       532-5.96408E-04-1.17034E-03 1.51090E-04
 -1       533-6.45010E-04-1.16688E-03 8.77529E-05
 -1       534-6.40727E-04-1.15785E-03 1.01588E-04
 -1       535-6.37777E-04-1.15059E-03 1.14089E-04
 -1       536-6.37533E-04-1.14145E-03 1.26179E-04
 -1       537-6.39046E-04-1.13530E-03 1.37358E-04
 -1       538-6.42523E-04-1.12961E-03 1.49431E-04
 -1       539-6.47068E-04-1.12127E-03 1.61702E-04
 -1       540-6.85101E-04-1.11713E-03 9.51353E-05
 -1       541-6.80443E-04-1.11076E-03 1.08340E-04
 -1       542-6.77528E-04-1.10323E-03 1.21740E-04
 -1       543-6.77842E-04-1.09650E-03 1.34392E-04
 -1       544-6.78844E-04-1.09032E-03 1.46340E-04
 -1       545-6.83375E-04-1.08485E-03 1.58915E-04
 -1       546-6.89796E-04-1.07930E-03 1.70724E-04
 -1       547-7.20514E-04-1.06820E-03 1.00275E-04
 -1       548-7.16607E-04-1.06356E-03 1.14519E-04
 -1       549-7.14359E-04-1.05713E-03 1.28134E-04
 -1       550-7.14795E-04-1.05094E-03 1.40923E-04
 -1       551-7.16362E-04-1.04549E-03 1.53341E-04
 -1       552-7.20450E-04-1.04012E-03 1.65564E-04
 -1       553-7.25955E-04-1.03335E-03 1.78852E-04
 -1       554-7.47676E-04-1.01983E-03 1.05444E-04
 -1       555-7.42689E-04-1.01595E-03 1.19130E-04
 -1       556-7.40493E-04-1.01106E-03 1.32889E-04
 -1       557-7.40915E-04-1.00570E-03 1.45956E-04
 -1       558-7.42475E-04-1.00127E-03 1.58999E-04
 -1       559-7.48188E-04-9.95148E-04 1.72655E-04
 -1       560-7.52612E-04-9.91337E-04 1.84229E-04
 -1       561-7.69687E-04-9.73863E-04 1.10246E-04
 -1       562-7.66015E-04-9.70173E-04 1.23391E-04
 -1       563-7.64155E-04-9.66513E-04 1.36817E-04
 -1       564-7.64374E-04-9.61613E-04 1.49769E-04
 -1       565-7.65817E-04-9.58445E-04 1.62421E-04
 -1       566-7.69982E-04-9.54335E-04 1.74933E-04
 -1       567-7.74579E-04-9.51392E-04 1.86826E-04
 -1       568-7.84791E-04-9.26080E-04 1.13016E-04
 -1       569-7.81120E-04-9.24445E-04 1.26610E-04
 -1       570-7.79680E-04-9.22657E-04 1.39538E-04
 -1       571-7.79601E-04-9.17788E-04 1.52513E-04
 -1       572-7.81181E-04-9.15747E-04 1.64599E-04
 -1       573-7.84217E-04-9.12833E-04 1.76385E-04
 -1       574-7.89653E-04-9.08857E-04 1.89169E-04
 -1       575-7.93216E-04-8.81129E-04 1.14709E-04
 -1       576-7.90691E-04-8.81415E-04 1.27092E-04
 -1       577-7.87655E-04-8.78247E-04 1.41351E-04
 -1       578-7.87801E-04-8.75950E-04 1.53968E-04
 -1       579-7.88901E-04-8.74577E-04 1.66302E-04
 -1       580-7.93527E-04-8.72008E-04 1.79246E-04
 -1       581-7.98101E-04-8.70404E-04 1.90529E-04
 -1       582-7.97392E-04-8.37439E-04 1.15283E-04
 -1       583-7.94397E-04-8.36900E-04 1.29487E-04
 -1       584-7.93008E-04-8.35986E-04 1.42020E-04
 -1       585-7.93303E-04-8.34398E-04 1.54317E-04
 -1       586-7.94364E-04-8.33583E-04 1.66377E-04
 -1       587-7.97000E-04-8.32518E-04 1.77877E-04
 -1       588-8.01945E-04-8.31702E-04 1.90622E-04
 -1       589-7.95471E-04-7.93875E-04 1.15804E-04
 -1       590-7.92931E-04-7.93289E-04 1.28255E-04
 -1       591-7.90310E-04-7.94404E-04 1.41230E-04
 -1       592-7.90788E-04-7.93256E-04 1.53838E-04
 -1       593-7.91847E-04-7.93470E-04 1.65862E-04
 -1       594-7.95275E-04-7.93155E-04 1.78020E-04
 -1       595-7.99391E-04-7.93057E-04 1.89386E-04
 -1       596-7.89735E-04-7.52940E-04 1.15665E-04
 -1       597-7.87144E-04-7.53266E-04 1.28092E-04
 -1       598-7.85859E-04-7.54156E-04 1.40521E-04
 -1       599-7.86025E-04-7.53990E-04 1.52509E-04
 -1       600-7.87349E-04-7.54840E-04 1.64251E-04
 -1       601-7.90062E-04-7.55416E-04 1.75835E-04
 -1       602-7.93948E-04-7.56107E-04 1.86554E-04
 -1       603-7.79426E-04-7.10965E-04 1.14568E-04
 -1       604-7.76847E-04-7.12566E-04 1.26408E-04
 -1       605-7.75459E-04-7.14654E-04 1.38288E-04
 -1       606-7.75827E-04-7.14968E-04 1.50363E-04
 -1       607-7.76726E-04-7.16597E-04 1.61760E-04
 -1       608-7.79080E-04-7.18522E-04 1.72933E-04
 -1       609-7.82344E-04-7.18801E-04 1.83697E-04
 -1       610-7.63485E-04-6.70743E-04 1.12197E-04
 -1       611-7.60777E-04-6.73087E-04 1.23926E-04
 -1       612-7.59647E-04-6.75248E-04 1.35846E-04
 -1       613-7.59756E-04-6.77130E-04 1.47329E-04
 -1       614-7.60634E-04-6.79426E-04 1.58642E-04
 -1       615-7.63167E-04-6.81620E-04 1.69806E-04
 -1       616-7.66842E-04-6.84298E-04 1.80529E-04
 -1       617-7.45451E-04-6.32136E-04 1.09526E-04
 -1       618-7.43430E-04-6.33883E-04 1.21110E-04
 -1       619-7.42216E-04-6.37361E-04 1.32675E-04
 -1       620-7.42281E-04-6.39836E-04 1.43876E-04
 -1       621-7.43046E-04-6.42976E-04 1.54743E-04
 -1       622-7.45193E-04-6.45083E-04 1.65555E-04
 -1       623-7.48127E-04-6.49160E-04 1.76117E-04
 -1       624-7.22523E-04-5.93311E-04 1.06402E-04
 -1       625-7.20569E-04-5.96664E-04 1.17202E-04
 -1       626-7.19338E-04-6.00307E-04 1.28535E-04
 -1       627-7.19338E-04-6.03411E-04 1.39553E-04
 -1       628-7.20235E-04-6.07479E-04 1.50000E-04
 -1       629-7.22289E-04-6.10118E-04 1.61182E-04
 -1       630-7.24705E-04-6.14644E-04 1.71314E-04
 -1       631-6.96888E-04-5.57300E-04 1.02535E-04
 -1       632-6.95198E-04-5.61619E-04 1.13513E-04
 -1       633-6.94278E-04-5.65726E-04 1.24185E-04
 -1       634-6.94438E-04-5.69302E-04 1.34635E-04
 -1       635-6.95075E-04-5.72908E-04 1.45237E-04
 -1       636-6.96919E-04-5.77401E-04 1.55339E-04
 -1       637-6.99159E-04-5.81593E-04 1.65584E-04
 -1       638-6.68839E-04-5.20683E-04 9.80019E-05
 -1       639-6.67233E-04-5.26024E-04 1.08657E-04
 -1       640-6.66612E-04-5.30741E-04 1.19060E-04
 -1       641-6.66589E-04-5.34724E-04 1.29293E-04
 -1       642-6.67076E-04-5.39189E-04 1.39382E-04
 -1       643-6.68415E-04-5.43899E-04 1.49187E-04
 -1       644-6.70695E-04-5.48228E-04 1.59688E-04
 -1       645-6.37609E-04-4.86560E-04 9.30790E-05
 -1       646-6.36164E-04-4.91688E-04 1.03063E-04
 -1       647-6.35177E-04-4.96936E-04 1.13370E-04
 -1       648-6.35247E-04-5.01296E-04 1.23591E-04
 -1       649-6.35743E-04-5.06328E-04 1.33601E-04
 -1       650-6.37455E-04-5.11068E-04 1.43775E-04
 -1       651-6.39123E-04-5.16100E-04 1.53240E-04
 -1       652-6.04808E-04-4.52814E-04 8.76749E-05
 -1       653-6.03648E-04-4.58345E-04 9.76337E-05
 -1       654-6.03037E-04-4.63886E-04 1.07570E-04
 -1       655-6.03016E-04-4.68728E-04 1.17380E-04
 -1       656-6.03395E-04-4.74160E-04 1.27094E-04
 -1       657-6.04414E-04-4.79203E-04 1.36772E-04
 -1       658-6.05843E-04-4.85303E-04 1.46230E-04
 -1       659-5.69769E-04-4.19919E-04 8.21596E-05
 -1       660-5.68708E-04-4.26116E-04 9.17394E-05
 -1       661-5.68171E-04-4.31823E-04 1.01374E-04
 -1       662-5.68225E-04-4.37121E-04 1.10879E-04
 -1       663-5.68508E-04-4.42759E-04 1.20365E-04
 -1       664-5.69499E-04-4.48433E-04 1.29701E-04
 -1       665-5.70792E-04-4.54343E-04 1.38909E-04
 -1       666-5.32749E-04-3.88798E-04 7.59454E-05
 -1       667-5.31784E-04-3.95235E-04 8.54165E-05
 -1       668-5.31609E-04-4.01559E-04 9.47356E-05
 -1       669-5.31510E-04-4.06665E-04 1.04182E-04
 -1       670-5.31895E-04-4.12982E-04 1.13331E-04
 -1       671-5.32318E-04-4.18513E-04 1.22471E-04
 -1       672-5.33471E-04-4.24662E-04 1.31585E-04
 -1       673-4.95429E-04-3.58389E-04 6.98663E-05
 -1       674-4.94749E-04-3.64905E-04 7.90029E-05
 -1       675-4.94521E-04-3.71256E-04 8.80962E-05
 -1       676-4.94509E-04-3.76825E-04 9.70882E-05
 -1       677-4.94705E-04-3.83189E-04 1.06071E-04
 -1       678-4.95147E-04-3.88925E-04 1.15001E-04
 -1       679-4.95931E-04-3.95219E-04 1.23840E-04
 -1       680-4.56565E-04-3.29031E-04 6.35591E-05
 -1       681-4.56183E-04-3.35805E-04 7.23053E-05
 -1       682-4.55929E-04-3.42280E-04 8.11358E-05
 -1       683-4.55926E-04-3.47942E-04 8.99310E-05
 -1       684-4.55990E-04-3.54514E-04 9.86040E-05
 -1       685-4.56310E-04-3.60388E-04 1.07338E-04
 -1       686-4.56771E-04-3.66684E-04 1.15983E-04
 -1       687-4.17368E-04-3.00764E-04 5.71217E-05
 -1       688-4.17176E-04-3.07577E-04 6.56371E-05
 -1       689-4.17107E-04-3.14159E-04 7.41355E-05
 -1       690-4.17065E-04-3.19988E-04 8.26086E-05
 -1       691-4.17068E-04-3.26538E-04 9.11075E-05
 -1       692-4.17115E-04-3.32603E-04 9.96217E-05
 -1       693-4.17214E-04-3.39238E-04 1.08079E-04
 -1       694-3.77968E-04-2.73788E-04 5.06958E-05
 -1       695-3.78023E-04-2.80505E-04 5.89164E-05
 -1       696-3.78073E-04-2.87150E-04 6.71118E-05
 -1       697-3.78004E-04-2.92991E-04 7.52997E-05
 -1       698-3.77899E-04-2.99472E-04 8.34945E-05
 -1       699-3.77715E-04-3.05730E-04 9.16937E-05
 -1       700-3.77682E-04-3.12494E-04 9.99927E-05
 -1       701-3.38621E-04-2.47919E-04 4.41250E-05
 -1       702-3.38797E-04-2.54438E-04 5.20319E-05
 -1       703-3.38897E-04-2.60943E-04 5.99845E-05
 -1       704-3.38868E-04-2.66835E-04 6.80153E-05
 -1       705-3.38754E-04-2.73324E-04 7.60260E-05
 -1       706-3.38470E-04-2.79416E-04 8.40801E-05
 -1       707-3.37888E-04-2.85965E-04 9.20808E-05
 -1       708-2.99801E-04-2.23011E-04 3.77659E-05
 -1       709-3.00114E-04-2.29376E-04 4.53357E-05
 -1       710-3.00241E-04-2.35738E-04 5.30150E-05
 -1       711-3.00153E-04-2.41417E-04 6.07265E-05
 -1       712-2.99967E-04-2.47916E-04 6.85254E-05
 -1       713-2.99432E-04-2.53714E-04 7.62998E-05
 -1       714-2.98739E-04-2.60505E-04 8.40635E-05
 -1       715-2.61779E-04-1.98956E-04 3.13562E-05
 -1       716-2.62202E-04-2.05672E-04 3.88757E-05
 -1       717-2.62742E-04-2.11722E-04 4.61251E-05
 -1       718-2.62632E-04-2.17287E-04 5.35530E-05
 -1       719-2.62300E-04-2.23498E-04 6.11379E-05
 -1       720-2.61676E-04-2.29395E-04 6.86185E-05
 -1       721-2.60513E-04-2.35581E-04 7.63079E-05
 -1       722-2.24396E-04-1.76016E-04 2.51169E-05
 -1       723-2.25171E-04-1.82619E-04 3.20797E-05
 -1       724-2.25496E-04-1.88439E-04 3.92933E-05
 -1       725-2.25397E-04-1.93856E-04 4.65882E-05
 -1       726-2.24920E-04-1.99762E-04 5.39144E-05
 -1       727-2.24053E-04-2.05495E-04 6.12940E-05
 -1       728-2.22885E-04-2.11323E-04 6.88191E-05
 -1       729-1.88966E-04-1.54759E-04 1.91574E-05
 -1       730-1.89881E-04-1.60773E-04 2.60538E-05
 -1       731-1.90421E-04-1.66368E-04 3.28516E-05
 -1       732-1.90189E-04-1.71314E-04 3.99467E-05
 -1       733-1.89634E-04-1.77067E-04 4.69668E-05
 -1       734-1.88543E-04-1.82643E-04 5.40898E-05
 -1       735-1.86932E-04-1.88123E-04 6.14610E-05
 -1       736-1.55217E-04-1.33770E-04 1.35887E-05
 -1       737-1.56426E-04-1.39496E-04 2.01621E-05
 -1       738-1.56943E-04-1.44328E-04 2.66984E-05
 -1       739-1.56892E-04-1.49427E-04 3.35367E-05
 -1       740-1.56374E-04-1.55011E-04 4.04792E-05
 -1       741-1.55098E-04-1.60156E-04 4.74057E-05
 -1       742-1.53230E-04-1.65579E-04 5.44455E-05
 -1       743-1.23479E-04-1.14560E-04 8.27843E-06
 -1       744-1.24679E-04-1.19689E-04 1.40861E-05
 -1       745-1.24874E-04-1.24125E-04 2.06446E-05
 -1       746-1.24741E-04-1.28567E-04 2.73657E-05
 -1       747-1.24146E-04-1.33789E-04 3.42244E-05
 -1       748-1.22685E-04-1.38592E-04 4.10357E-05
 -1       749-1.20697E-04-1.43879E-04 4.81009E-05
 -1       750-9.43575E-05-9.61084E-05 3.05548E-06
 -1       751-9.57714E-05-1.00760E-04 9.31004E-06
 -1       752-9.61796E-05-1.04771E-04 1.51681E-05
 -1       753-9.61556E-05-1.08476E-04 2.16370E-05
 -1       754-9.55872E-05-1.13388E-04 2.84445E-05
 -1       755-9.41497E-05-1.18102E-04 3.50680E-05
 -1       756-9.17125E-05-1.22912E-04 4.17012E-05
 -1       757-6.69040E-05-7.89461E-05-1.18780E-06
 -1       758-6.82324E-05-8.25275E-05 4.38385E-06
 -1       759-6.89059E-05-8.63748E-05 1.04388E-05
 -1       760-6.86440E-05-8.90010E-05 1.64292E-05
 -1       761-6.76990E-05-9.34949E-05 2.29823E-05
 -1       762-6.61479E-05-9.80196E-05 2.95416E-05
 -1       763-6.39405E-05-1.02308E-04 3.63100E-05
 -1       764-4.33318E-05-6.33495E-05-5.56798E-06
 -1       765-4.47113E-05-6.61030E-05 5.41784E-08
 -1       766-4.51488E-05-6.88547E-05 5.82469E-06
 -1       767-4.47780E-05-7.10300E-05 1.18909E-05
 -1       768-4.39347E-05-7.49074E-05 1.80957E-05
 -1       769-4.22346E-05-7.92932E-05 2.43388E-05
 -1       770-4.00915E-05-8.35404E-05 3.08932E-05
 -1       771-2.44647E-05-4.90096E-05-8.17748E-06
 -1       772-2.53052E-05-5.04508E-05-2.94042E-06
 -1       773-2.58548E-05-5.21407E-05 2.22357E-06
 -1       774-2.53299E-05-5.34849E-05 7.77331E-06
 -1       775-2.46936E-05-5.71854E-05 1.35986E-05
 -1       776-2.26909E-05-6.07009E-05 1.92460E-05
 -1       777-2.05302E-05-6.52632E-05 2.54889E-05
 -1       778-7.94026E-06-3.61856E-05-9.73127E-06
 -1       779-8.75704E-06-3.63223E-05-5.62614E-06
 -1       780-8.32739E-06-3.69230E-05-3.46332E-07
 -1       781-7.81851E-06-3.81125E-05 4.44357E-06
 -1       782-7.07988E-06-4.07520E-05 9.61483E-06
 -1       783-6.04919E-06-4.42045E-05 1.49046E-05
 -1       784-4.07549E-06-4.75010E-05 2.01195E-05
 -1       785 2.90104E-06-2.45705E-05-9.53587E-06
 -1       786 2.15431E-06-2.32163E-05-5.14510E-06
 -1       787 1.53894E-06-2.34949E-05-1.69312E-06
 -1       788 1.79650E-06-2.48919E-05 2.37413E-06
 -1       789 2.70663E-06-2.60491E-05 6.14514E-06
 -1       790 3.91673E-06-2.96546E-05 9.66401E-06
 -1       791 5.48662E-06-3.23573E-05 1.45850E-05
 -1       792 6.56787E-06-1.36097E-05-7.33199E-06
 -1       793 7.01235E-06-1.08201E-05-4.07713E-06
 -1       794 7.19706E-06-1.11479E-05-1.32456E-06
 -1       795 6.67547E-06-1.14968E-05 9.49147E-07
 -1       796 7.57811E-06-1.22921E-05 2.35588E-06
 -1       797 7.68283E-06-1.37908E-05 5.24518E-06
 -1       798 9.59496E-06-1.57685E-05 8.02370E-06
 -1       799-3.12473E-04-1.30305E-03 1.29154E-04
 -1       800-3.20970E-04-1.22341E-03 1.27561E-04
 -1       801-3.28691E-04-1.15125E-03 1.25676E-04
 -1       802-3.36540E-04-1.07946E-03 1.25473E-04
 -1       803-3.48534E-04-1.01243E-03 1.11310E-04
 -1       804-3.99454E-04-1.25065E-03 1.31850E-04
 -1       805-4.11119E-04-1.17929E-03 1.25489E-04
 -1       806-4.22072E-04-1.10864E-03 1.21214E-04
 -1       807-4.32161E-04-1.03976E-03 1.10942E-04
 -1       808-4.47306E-04-9.69861E-04 9.64904E-05
 -1       809-4.81650E-04-1.19970E-03 1.36511E-04
 -1       810-4.93576E-04-1.13402E-03 1.29096E-04
 -1       811-5.02932E-04-1.06779E-03 1.21552E-04
 -1       812-5.14675E-04-1.00007E-03 1.11087E-04
 -1       813-5.23465E-04-9.31914E-04 9.80243E-05
 -1       814-5.55052E-04-1.15236E-03 1.47568E-04
 -1       815-5.65104E-04-1.09322E-03 1.39199E-04
 -1       816-5.76921E-04-1.03264E-03 1.31141E-04
 -1       817-5.83905E-04-9.72585E-04 1.21112E-04
 -1       818-5.92078E-04-9.10419E-04 1.10723E-04
 -1       819-6.14585E-04-1.11122E-03 1.58673E-04
 -1       820-6.26460E-04-1.05839E-03 1.50129E-04
 -1       821-6.35669E-04-1.00392E-03 1.41861E-04
 -1       822-6.43004E-04-9.51963E-04 1.33541E-04
 -1       823-6.47379E-04-8.98183E-04 1.25171E-04
 -1       824-6.66484E-04-1.07170E-03 1.68097E-04
 -1       825-6.76869E-04-1.02580E-03 1.60131E-04
 -1       826-6.85206E-04-9.79059E-04 1.52427E-04
 -1       827-6.91421E-04-9.34261E-04 1.44782E-04
 -1       828-6.95231E-04-8.89133E-04 1.37398E-04
 -1       829-7.09692E-04-1.03273E-03 1.77818E-04
 -1       830-7.17040E-04-9.95370E-04 1.69477E-04
 -1       831-7.27279E-04-9.55819E-04 1.62075E-04
 -1       832-7.31279E-04-9.18125E-04 1.54307E-04
 -1       833-7.35571E-04-8.79877E-04 1.46815E-04
 -1       834-7.43311E-04-9.97588E-04 1.84140E-04
 -1       835-7.52372E-04-9.66135E-04 1.76218E-04
 -1       836-7.58456E-04-9.34515E-04 1.69111E-04
 -1       837-7.65367E-04-9.02598E-04 1.62711E-04
 -1       838-7.68781E-04-8.70926E-04 1.55427E-04
 -1       839-7.70197E-04-9.63291E-04 1.89301E-04
 -1       840-7.79510E-04-9.37816E-04 1.81892E-04
 -1       841-7.86659E-04-9.12032E-04 1.74566E-04
 -1       842-7.91383E-04-8.87080E-04 1.68419E-04
 -1       843-7.96191E-04-8.61235E-04 1.61676E-04
 -1       844-7.91839E-04-9.29212E-04 1.92551E-04
 -1       845-8.00916E-04-9.09416E-04 1.85762E-04
 -1       846-8.07696E-04-8.89821E-04 1.79197E-04
 -1       847-8.13068E-04-8.70201E-04 1.72871E-04
 -1       848-8.17412E-04-8.51318E-04 1.67106E-04
 -1       849-8.06170E-04-8.95514E-04 1.94559E-04
 -1       850-8.13885E-04-8.81651E-04 1.87851E-04
 -1       851-8.21345E-04-8.67500E-04 1.81785E-04
 -1       852-8.27426E-04-8.53718E-04 1.76806E-04
 -1       853-8.31275E-04-8.40594E-04 1.70687E-04
 -1       854-8.13853E-04-8.61719E-04 1.96080E-04
 -1       855-8.22332E-04-8.53663E-04 1.89666E-04
 -1       856-8.30349E-04-8.44943E-04 1.83907E-04
 -1       857-8.35401E-04-8.35773E-04 1.78451E-04
 -1       858-8.40130E-04-8.28079E-04 1.72275E-04
 -1       859-8.17338E-04-8.29413E-04 1.96277E-04
 -1       860-8.25056E-04-8.25715E-04 1.90366E-04
 -1       861-8.32058E-04-8.21984E-04 1.84417E-04
 -1       862-8.38708E-04-8.18179E-04 1.79577E-04
 -1       863-8.42786E-04-8.15011E-04 1.73948E-04
 -1       864-8.15124E-04-7.97786E-04 1.95157E-04
 -1       865-8.22591E-04-7.98324E-04 1.89592E-04
 -1       866-8.30150E-04-7.99024E-04 1.84464E-04
 -1       867-8.36070E-04-7.99836E-04 1.79185E-04
 -1       868-8.40302E-04-8.00930E-04 1.73931E-04
 -1       869-8.08054E-04-7.64982E-04 1.92954E-04
 -1       870-8.16569E-04-7.70406E-04 1.87901E-04
 -1       871-8.23596E-04-7.75869E-04 1.83215E-04
 -1       872-8.29782E-04-7.80457E-04 1.78294E-04
 -1       873-8.34049E-04-7.85989E-04 1.73705E-04
 -1       874-7.96120E-04-7.33275E-04 1.89957E-04
 -1       875-8.04314E-04-7.42720E-04 1.85170E-04
 -1       876-8.10734E-04-7.52079E-04 1.80982E-04
 -1       877-8.17648E-04-7.61112E-04 1.76984E-04
 -1       878-8.22497E-04-7.70367E-04 1.72399E-04
 -1       879-7.80475E-04-7.01527E-04 1.86984E-04
 -1       880-7.88241E-04-7.15001E-04 1.82450E-04
 -1       881-7.95941E-04-7.27748E-04 1.78208E-04
 -1       882-8.01626E-04-7.40670E-04 1.74565E-04
 -1       883-8.07251E-04-7.53531E-04 1.70131E-04
 -1       884-7.60621E-04-6.70947E-04 1.82709E-04
 -1       885-7.68665E-04-6.87502E-04 1.78518E-04
 -1       886-7.75258E-04-7.03745E-04 1.74836E-04
 -1       887-7.82206E-04-7.19680E-04 1.71460E-04
 -1       888-7.87386E-04-7.36302E-04 1.67712E-04
 -1       889-7.37328E-04-6.40641E-04 1.77953E-04
 -1       890-7.45019E-04-6.60197E-04 1.74307E-04
 -1       891-7.52715E-04-6.79332E-04 1.70843E-04
 -1       892-7.58457E-04-6.98599E-04 1.67644E-04
 -1       893-7.64497E-04-7.18123E-04 1.64239E-04
 -1       894-7.11226E-04-6.10135E-04 1.72648E-04
 -1       895-7.19472E-04-6.32561E-04 1.69469E-04
 -1       896-7.26566E-04-6.54999E-04 1.66421E-04
 -1       897-7.33094E-04-6.76631E-04 1.63431E-04
 -1       898-7.38617E-04-6.99114E-04 1.60609E-04
 -1       899-6.81892E-04-5.80285E-04 1.66498E-04
 -1       900-6.89629E-04-6.05235E-04 1.63594E-04
 -1       901-6.96455E-04-6.29985E-04 1.61151E-04
 -1       902-7.03559E-04-6.54449E-04 1.58835E-04
 -1       903-7.09372E-04-6.79262E-04 1.56209E-04
 -1       904-6.50114E-04-5.51114E-04 1.60393E-04
 -1       905-6.57781E-04-5.77923E-04 1.57930E-04
 -1       906-6.65330E-04-6.04625E-04 1.55534E-04
 -1       907-6.71712E-04-6.31390E-04 1.53481E-04
 -1       908-6.78154E-04-6.58345E-04 1.50900E-04
 -1       909-6.16080E-04-5.21962E-04 1.53586E-04
 -1       910-6.24094E-04-5.50717E-04 1.51406E-04
 -1       911-6.30963E-04-5.79323E-04 1.49588E-04
 -1       912-6.38127E-04-6.07782E-04 1.47838E-04
 -1       913-6.44379E-04-6.36728E-04 1.45914E-04
 -1       914-5.80351E-04-4.93179E-04 1.46550E-04
 -1       915-5.88128E-04-5.23634E-04 1.44899E-04
 -1       916-5.95420E-04-5.53871E-04 1.43359E-04
 -1       917-6.02316E-04-5.83854E-04 1.41858E-04
 -1       918-6.08766E-04-6.14356E-04 1.40366E-04
 -1       919-5.43184E-04-4.64671E-04 1.39428E-04
 -1       920-5.50555E-04-4.96492E-04 1.38115E-04
 -1       921-5.58059E-04-5.27874E-04 1.36686E-04
 -1       922-5.64780E-04-5.59154E-04 1.35434E-04
 -1       923-5.71666E-04-5.91067E-04 1.34210E-04
 -1       924-5.04408E-04-4.36741E-04 1.31801E-04
 -1       925-5.11934E-04-4.69394E-04 1.30762E-04
 -1       926-5.19110E-04-5.01797E-04 1.29918E-04
 -1       927-5.26318E-04-5.34187E-04 1.29159E-04
 -1       928-5.33221E-04-5.66998E-04 1.28230E-04
 -1       929-4.65007E-04-4.09275E-04 1.24136E-04
 -1       930-4.72456E-04-4.42370E-04 1.23598E-04
 -1       931-4.79841E-04-4.75487E-04 1.22942E-04
 -1       932-4.86951E-04-5.08485E-04 1.22453E-04
 -1       933-4.94083E-04-5.41810E-04 1.21835E-04
 -1       934-4.25018E-04-3.81799E-04 1.16257E-04
 -1       935-4.32508E-04-4.15468E-04 1.16118E-04
 -1       936-4.39797E-04-4.48889E-04 1.15900E-04
 -1       937-4.47164E-04-4.82285E-04 1.15658E-04
 -1       938-4.54351E-04-5.15988E-04 1.15459E-04
 -1       939-3.84700E-04-3.54808E-04 1.08399E-04
 -1       940-3.92024E-04-3.88657E-04 1.08566E-04
 -1       941-3.99420E-04-4.22139E-04 1.08818E-04
 -1       942-4.06801E-04-4.55528E-04 1.09011E-04
 -1       943-4.14298E-04-4.89418E-04 1.09168E-04
 -1       944-3.44742E-04-3.28385E-04 1.00587E-04
 -1       945-3.52055E-04-3.61832E-04 1.01255E-04
 -1       946-3.59360E-04-3.95174E-04 1.01657E-04
 -1       947-3.66921E-04-4.28206E-04 1.02139E-04
 -1       948-3.74527E-04-4.61886E-04 1.02648E-04
 -1       949-3.04968E-04-3.02149E-04 9.28162E-05
 -1       950-3.12143E-04-3.35135E-04 9.37328E-05
 -1       951-3.19688E-04-3.67790E-04 9.46349E-05
 -1       952-3.27262E-04-4.00385E-04 9.55240E-05
 -1       953-3.35057E-04-4.33511E-04 9.63273E-05
 -1       954-2.65947E-04-2.76451E-04 8.51577E-05
 -1       955-2.73162E-04-3.08425E-04 8.64800E-05
 -1       956-2.80424E-04-3.40381E-04 8.77733E-05
 -1       957-2.88366E-04-3.71874E-04 8.91322E-05
 -1       958-2.96221E-04-4.04273E-04 9.02637E-05
 -1       959-2.28124E-04-2.50961E-04 7.79029E-05
 -1       960-2.35166E-04-2.81991E-04 7.94177E-05
 -1       961-2.42771E-04-3.12592E-04 8.10923E-05
 -1       962-2.50514E-04-3.43179E-04 8.25850E-05
 -1       963-2.58760E-04-3.74254E-04 8.40981E-05
 -1       964-1.91684E-04-2.25931E-04 7.05622E-05
 -1       965-1.98572E-04-2.55463E-04 7.25427E-05
 -1       966-2.06063E-04-2.84698E-04 7.45609E-05
 -1       967-2.13911E-04-3.13784E-04 7.64289E-05
 -1       968-2.22562E-04-3.43406E-04 7.82853E-05
 -1       969-1.57151E-04-2.01299E-04 6.36634E-05
 -1       970-1.64296E-04-2.29125E-04 6.61188E-05
 -1       971-1.71552E-04-2.56644E-04 6.84657E-05
 -1       972-1.79842E-04-2.83986E-04 7.06223E-05
 -1       973-1.88108E-04-3.11574E-04 7.28020E-05
 -1       974-1.24642E-04-1.76772E-04 5.72830E-05
 -1       975-1.31391E-04-2.02781E-04 6.00311E-05
 -1       976-1.39218E-04-2.28260E-04 6.25015E-05
 -1       977-1.47318E-04-2.53662E-04 6.52297E-05
 -1       978-1.55756E-04-2.79437E-04 6.77149E-05
 -1       979-9.43032E-05-1.53110E-04 5.10515E-05
 -1       980-1.01435E-04-1.76720E-04 5.41880E-05
 -1       981-1.08602E-04-1.99825E-04 5.72869E-05
 -1       982-1.17336E-04-2.22717E-04 6.03239E-05
 -1       983-1.25754E-04-2.46535E-04 6.31885E-05
 -1       984-6.71786E-05-1.29995E-04 4.58174E-05
 -1       985-7.37347E-05-1.50867E-04 4.89596E-05
 -1       986-8.13752E-05-1.71388E-04 5.21382E-05
 -1       987-8.97582E-05-1.91994E-04 5.52528E-05
 -1       988-9.89257E-05-2.12899E-04 5.81916E-05
 -1       989-4.27736E-05-1.07654E-04 4.02949E-05
 -1       990-4.93892E-05-1.25226E-04 4.38019E-05
 -1       991-5.70873E-05-1.42785E-04 4.73134E-05
 -1       992-6.56076E-05-1.60598E-04 5.07543E-05
 -1       993-7.50762E-05-1.78695E-04 5.39866E-05
 -1       994-2.24755E-05-8.56929E-05 3.47188E-05
 -1       995-2.94252E-05-9.97843E-05 3.88505E-05
 -1       996-3.65488E-05-1.14154E-04 4.25780E-05
 -1       997-4.56371E-05-1.28793E-04 4.60942E-05
 -1       998-5.44894E-05-1.44215E-04 4.97525E-05
 -1       999-6.49273E-06-6.39563E-05 2.92627E-05
 -1      1000-1.28951E-05-7.45194E-05 3.36994E-05
 -1      1001-2.10772E-05-8.55701E-05 3.70740E-05
 -1      1002-2.87727E-05-9.73511E-05 4.05097E-05
 -1      1003-3.79629E-05-1.09963E-04 4.38775E-05
 -1      1004 4.93041E-06-4.26935E-05 2.28733E-05
 -1      1005-1.98447E-06-4.92523E-05 2.67755E-05
 -1      1006-7.79351E-06-5.74936E-05 3.06908E-05
 -1      1007-1.59427E-05-6.52600E-05 3.32455E-05
 -1      1008-2.37461E-05-7.51446E-05 3.68575E-05
 -1      1009 7.67074E-06-2.07184E-05 1.48742E-05
 -1      1010 3.20486E-06-2.42497E-05 1.68809E-05
 -1      1011-1.86676E-07-2.78022E-05 1.98694E-05
 -1      1012-5.03412E-06-3.30294E-05 2.22899E-05
 -1      1013-1.14407E-05-3.72274E-05 2.45425E-05
 -1      1014-3.44195E-04-8.69883E-04 8.11492E-05
 -1      1015-3.49733E-04-7.70292E-04 7.57507E-05
 -1      1016-3.69753E-04-6.23235E-04 1.06452E-04
 -1      1017-3.38709E-04-8.17285E-04 1.18913E-04
 -1      1018-3.58455E-04-9.26924E-04 1.02513E-04
 -1      1019-3.77723E-04-9.92509E-04 8.69158E-05
 -1      1020-3.99806E-04-1.04561E-03 7.16271E-05
 -1      1021-4.36285E-04-8.57671E-04 7.30231E-05
 -1      1022-4.32895E-04-8.08787E-04 7.14394E-05
 -1      1023-4.24297E-04-7.63309E-04 1.20352E-04
 -1      1024-4.28450E-04-8.35307E-04 1.27351E-04
 -1      1025-4.38491E-04-9.07780E-04 1.21016E-04
 -1      1026-4.55193E-04-9.65885E-04 1.08764E-04
 -1      1027-4.67973E-04-1.00518E-03 9.93434E-05
 -1      1028-5.20952E-04-8.59126E-04 8.61665E-05
 -1      1029-5.15635E-04-8.36992E-04 9.01062E-05
 -1      1030-5.18512E-04-8.26412E-04 1.09169E-04
 -1      1031-5.14398E-04-8.60358E-04 1.21332E-04
 -1      1032-5.14801E-04-9.03800E-04 1.24072E-04
 -1      1033-5.22238E-04-9.43562E-04 1.20726E-04
 -1      1034-5.34485E-04-9.75426E-04 1.13614E-04
 -1      1035-5.85027E-04-8.58913E-04 1.00182E-04
 -1      1036-5.78224E-04-8.54375E-04 1.04549E-04
 -1      1037-5.74151E-04-8.50529E-04 1.15968E-04
 -1      1038-5.75666E-04-8.73748E-04 1.26171E-04
 -1      1039-5.77625E-04-9.00540E-04 1.27143E-04
 -1      1040-5.85946E-04-9.30134E-04 1.26881E-04
 -1      1041-5.95180E-04-9.52862E-04 1.21767E-04
 -1      1042-6.42259E-04-8.55415E-04 1.17635E-04
 -1      1043-6.37996E-04-8.59258E-04 1.17657E-04
 -1      1044-6.36111E-04-8.64038E-04 1.23154E-04
 -1      1045-6.35625E-04-8.79619E-04 1.28687E-04
 -1      1046-6.37498E-04-8.96967E-04 1.32744E-04
 -1      1047-6.42675E-04-9.16601E-04 1.31542E-04
 -1      1048-6.50842E-04-9.33745E-04 1.25691E-04
 -1      1049-6.91151E-04-8.55154E-04 1.30236E-04
 -1      1050-6.86501E-04-8.60778E-04 1.29646E-04
 -1      1051-6.84870E-04-8.66365E-04 1.31501E-04
 -1      1052-6.83697E-04-8.79924E-04 1.34593E-04
 -1      1053-6.86143E-04-8.92202E-04 1.35447E-04
 -1      1054-6.91504E-04-9.06545E-04 1.33761E-04
 -1      1055-6.97754E-04-9.19195E-04 1.28826E-04
 -1      1056-7.30474E-04-8.52923E-04 1.39991E-04
 -1      1057-7.25708E-04-8.58036E-04 1.38709E-04
 -1      1058-7.23418E-04-8.65855E-04 1.39900E-04
 -1      1059-7.23789E-04-8.74592E-04 1.40050E-04
 -1      1060-7.24789E-04-8.84162E-04 1.38730E-04
 -1      1061-7.30895E-04-8.95837E-04 1.37149E-04
 -1      1062-7.37337E-04-9.03825E-04 1.33152E-04
 -1      1063-7.65181E-04-8.48577E-04 1.47524E-04
 -1      1064-7.60895E-04-8.54093E-04 1.47410E-04
 -1      1065-7.59935E-04-8.61571E-04 1.46079E-04
 -1      1066-7.59934E-04-8.68297E-04 1.44319E-04
 -1      1067-7.61281E-04-8.75754E-04 1.42254E-04
 -1      1068-7.64317E-04-8.83669E-04 1.39362E-04
 -1      1069-7.70962E-04-8.90478E-04 1.36635E-04
 -1      1070-7.92126E-04-8.44609E-04 1.54339E-04
 -1      1071-7.87952E-04-8.49006E-04 1.52073E-04
 -1      1072-7.86662E-04-8.55332E-04 1.50968E-04
 -1      1073-7.85832E-04-8.60291E-04 1.48072E-04
 -1      1074-7.87585E-04-8.66208E-04 1.45681E-04
 -1      1075-7.93281E-04-8.73742E-04 1.43514E-04
 -1      1076-7.98056E-04-8.76948E-04 1.38475E-04
 -1      1077-8.13911E-04-8.37366E-04 1.59745E-04
 -1      1078-8.10398E-04-8.41625E-04 1.56374E-04
 -1      1079-8.07852E-04-8.45729E-04 1.53368E-04
 -1      1080-8.08543E-04-8.50322E-04 1.51255E-04
 -1      1081-8.10437E-04-8.54931E-04 1.48023E-04
 -1      1082-8.14235E-04-8.58880E-04 1.43825E-04
 -1      1083-8.19319E-04-8.62537E-04 1.39617E-04
 -1      1084-8.29459E-04-8.31584E-04 1.63151E-04
 -1      1085-8.25760E-04-8.33984E-04 1.59798E-04
 -1      1086-8.24153E-04-8.36538E-04 1.56396E-04
 -1      1087-8.24701E-04-8.41224E-04 1.53425E-04
 -1      1088-8.25670E-04-8.43377E-04 1.49190E-04
 -1      1089-8.28705E-04-8.46615E-04 1.44571E-04
 -1      1090-8.34429E-04-8.50220E-04 1.41197E-04
 -1      1091-8.37387E-04-8.23986E-04 1.65271E-04
 -1      1092-8.33957E-04-8.24085E-04 1.61459E-04
 -1      1093-8.32077E-04-8.27057E-04 1.58384E-04
 -1      1094-8.32321E-04-8.29525E-04 1.54487E-04
 -1      1095-8.33622E-04-8.31380E-04 1.50178E-04
 -1      1096-8.38124E-04-8.33795E-04 1.46475E-04
 -1      1097-8.42459E-04-8.35852E-04 1.40884E-04
 -1      1098-8.41616E-04-8.14269E-04 1.65983E-04
 -1      1099-8.38630E-04-8.13588E-04 1.62814E-04
 -1      1100-8.37342E-04-8.15445E-04 1.58932E-04
 -1      1101-8.37722E-04-8.17282E-04 1.54688E-04
 -1      1102-8.38842E-04-8.18310E-04 1.50157E-04
 -1      1103-8.41546E-04-8.19335E-04 1.44983E-04
 -1      1104-8.46407E-04-8.20245E-04 1.40941E-04
 -1      1105-8.39489E-04-8.04024E-04 1.66052E-04
 -1      1106-8.36365E-04-8.03467E-04 1.62298E-04
 -1      1107-8.34689E-04-8.03323E-04 1.58236E-04
 -1      1108-8.35171E-04-8.04633E-04 1.54176E-04
 -1      1109-8.36291E-04-8.04534E-04 1.49529E-04
 -1      1110-8.39739E-04-8.04811E-04 1.44993E-04
 -1      1111-8.43881E-04-8.04859E-04 1.39628E-04
 -1      1112-8.34217E-04-7.91968E-04 1.65850E-04
 -1      1113-8.31418E-04-7.90783E-04 1.61541E-04
 -1      1114-8.30292E-04-7.89930E-04 1.57468E-04
 -1      1115-8.30410E-04-7.90134E-04 1.52798E-04
 -1      1116-8.31769E-04-7.89303E-04 1.47882E-04
 -1      1117-8.34530E-04-7.88689E-04 1.42772E-04
 -1      1118-8.38468E-04-7.87957E-04 1.36816E-04
 -1      1119-8.23424E-04-7.79486E-04 1.64737E-04
 -1      1120-8.20877E-04-7.77924E-04 1.60070E-04
 -1      1121-8.19721E-04-7.75712E-04 1.55272E-04
 -1      1122-8.20144E-04-7.75377E-04 1.50662E-04
 -1      1123-8.21145E-04-7.73726E-04 1.45391E-04
 -1      1124-8.23586E-04-7.71801E-04 1.39874E-04
 -1      1125-8.26951E-04-7.71523E-04 1.33963E-04
 -1      1126-8.07459E-04-7.66008E-04 1.62429E-04
 -1      1127-8.05132E-04-7.63442E-04 1.57448E-04
 -1      1128-8.03811E-04-7.61316E-04 1.52790E-04
 -1      1129-8.04058E-04-7.59439E-04 1.47628E-04
 -1      1130-8.05046E-04-7.57114E-04 1.42287E-04
 -1      1131-8.07681E-04-7.54894E-04 1.36772E-04
 -1      1132-8.11551E-04-7.52330E-04 1.30761E-04
 -1      1133-7.88976E-04-7.51332E-04 1.59535E-04
 -1      1134-7.86915E-04-7.48165E-04 1.55079E-04
 -1      1135-7.86346E-04-7.45386E-04 1.49723E-04
 -1      1136-7.86566E-04-7.42939E-04 1.44230E-04
 -1      1137-7.87467E-04-7.39795E-04 1.38414E-04
 -1      1138-7.89611E-04-7.37569E-04 1.32533E-04
 -1      1139-7.92659E-04-7.33233E-04 1.26606E-04
 -1      1140-7.66590E-04-7.35649E-04 1.56590E-04
 -1      1141-7.64419E-04-7.31868E-04 1.50916E-04
 -1      1142-7.63576E-04-7.28714E-04 1.45527E-04
 -1      1143-7.63665E-04-7.25593E-04 1.39850E-04
 -1      1144-7.64669E-04-7.21520E-04 1.33614E-04
 -1      1145-7.66386E-04-7.18588E-04 1.27876E-04
 -1      1146-7.69373E-04-7.14380E-04 1.21731E-04
 -1      1147-7.41297E-04-7.18139E-04 1.52908E-04
 -1      1148-7.39524E-04-7.13996E-04 1.46995E-04
 -1      1149-7.38558E-04-7.09577E-04 1.41098E-04
 -1      1150-7.38809E-04-7.05990E-04 1.34958E-04
 -1      1151-7.39615E-04-7.02399E-04 1.28998E-04
 -1      1152-7.41542E-04-6.98335E-04 1.22630E-04
 -1      1153-7.44290E-04-6.94251E-04 1.15926E-04
 -1      1154-7.12860E-04-7.00872E-04 1.48246E-04
 -1      1155-7.11331E-04-6.95662E-04 1.42221E-04
 -1      1156-7.10842E-04-6.90844E-04 1.36018E-04
 -1      1157-7.10980E-04-6.86873E-04 1.29700E-04
 -1      1158-7.11623E-04-6.82414E-04 1.23267E-04
 -1      1159-7.13226E-04-6.77632E-04 1.16656E-04
 -1      1160-7.15587E-04-6.73551E-04 1.09901E-04
 -1      1161-6.81594E-04-6.81258E-04 1.43290E-04
 -1      1162-6.80261E-04-6.76173E-04 1.36642E-04
 -1      1163-6.79390E-04-6.70919E-04 1.30323E-04
 -1      1164-6.79591E-04-6.66583E-04 1.23932E-04
 -1      1165-6.80221E-04-6.61555E-04 1.17311E-04
 -1      1166-6.81864E-04-6.56890E-04 1.10727E-04
 -1      1167-6.83800E-04-6.51851E-04 1.03585E-04
 -1      1168-6.48781E-04-6.61261E-04 1.37867E-04
 -1      1169-6.47705E-04-6.55739E-04 1.31212E-04
 -1      1170-6.47221E-04-6.50234E-04 1.24526E-04
 -1      1171-6.47329E-04-6.45401E-04 1.17697E-04
 -1      1172-6.47832E-04-6.39962E-04 1.10769E-04
 -1      1173-6.48886E-04-6.34941E-04 1.03765E-04
 -1      1174-6.50502E-04-6.28902E-04 9.66116E-05
 -1      1175-6.13738E-04-6.40389E-04 1.32324E-04
 -1      1176-6.12720E-04-6.34211E-04 1.25382E-04
 -1      1177-6.12329E-04-6.28545E-04 1.18340E-04
 -1      1178-6.12509E-04-6.23251E-04 1.11181E-04
 -1      1179-6.12896E-04-6.17604E-04 1.03986E-04
 -1      1180-6.13780E-04-6.11932E-04 9.65293E-05
 -1      1181-6.15404E-04-6.06275E-04 8.93259E-05
 -1      1182-5.76687E-04-6.17790E-04 1.26098E-04
 -1      1183-5.76157E-04-6.11190E-04 1.18767E-04
 -1      1184-5.75804E-04-6.05090E-04 1.11661E-04
 -1      1185-5.75824E-04-5.99953E-04 1.04488E-04
 -1      1186-5.76305E-04-5.93646E-04 9.70347E-05
 -1      1187-5.77172E-04-5.87795E-04 8.97830E-05
 -1      1188-5.78125E-04-5.82052E-04 8.20250E-05
 -1      1189-5.39396E-04-5.94465E-04 1.20046E-04
 -1      1190-5.38891E-04-5.87904E-04 1.12542E-04
 -1      1191-5.38756E-04-5.81655E-04 1.05013E-04
 -1      1192-5.38844E-04-5.76070E-04 9.73847E-05
 -1      1193-5.39142E-04-5.69692E-04 8.97402E-05
 -1      1194-5.39656E-04-5.63776E-04 8.20258E-05
 -1      1195-5.40472E-04-5.57687E-04 7.42913E-05
 -1      1196-5.00551E-04-5.70095E-04 1.13732E-04
 -1      1197-5.00284E-04-5.63314E-04 1.05862E-04
 -1      1198-5.00149E-04-5.56904E-04 9.80719E-05
 -1      1199-5.00259E-04-5.51227E-04 9.02511E-05
 -1      1200-5.00437E-04-5.44644E-04 8.23162E-05
 -1      1201-5.00947E-04-5.38779E-04 7.44876E-05
 -1      1202-5.01505E-04-5.32375E-04 6.64207E-05
 -1      1203-4.61352E-04-5.44612E-04 1.07273E-04
 -1      1204-4.61258E-04-5.37809E-04 9.92016E-05
 -1      1205-4.61316E-04-5.31303E-04 9.10887E-05
 -1      1206-4.61404E-04-5.25461E-04 8.29419E-05
 -1      1207-4.61518E-04-5.18889E-04 7.48184E-05
 -1      1208-4.61694E-04-5.12782E-04 6.67134E-05
 -1      1209-4.61924E-04-5.06125E-04 5.85263E-05
 -1      1210-4.22039E-04-5.17635E-04 1.00867E-04
 -1      1211-4.22079E-04-5.11152E-04 9.25063E-05
 -1      1212-4.22225E-04-5.04626E-04 8.40586E-05
 -1      1213-4.22291E-04-4.98763E-04 7.56123E-05
 -1      1214-4.22326E-04-4.92227E-04 6.71932E-05
 -1      1215-4.22297E-04-4.85881E-04 5.87968E-05
 -1      1216-4.22389E-04-4.79185E-04 5.04280E-05
 -1      1217-3.82566E-04-4.89966E-04 9.43624E-05
 -1      1218-3.82951E-04-4.83575E-04 8.56480E-05
 -1      1219-3.83135E-04-4.76977E-04 7.69723E-05
 -1      1220-3.83181E-04-4.71160E-04 6.83233E-05
 -1      1221-3.83176E-04-4.64653E-04 5.96918E-05
 -1      1222-3.83002E-04-4.58572E-04 5.10749E-05
 -1      1223-3.82573E-04-4.51968E-04 4.24790E-05
 -1      1224-3.43719E-04-4.61295E-04 8.80994E-05
 -1      1225-3.44276E-04-4.54735E-04 7.88997E-05
 -1      1226-3.44472E-04-4.48472E-04 6.99432E-05
 -1      1227-3.44473E-04-4.42833E-04 6.10093E-05
 -1      1228-3.44386E-04-4.36324E-04 5.21563E-05
 -1      1229-3.44020E-04-4.30479E-04 4.33026E-05
 -1      1230-3.43458E-04-4.23699E-04 3.44094E-05
 -1      1231-3.05728E-04-4.31498E-04 8.16923E-05
 -1      1232-3.06445E-04-4.24885E-04 7.24762E-05
 -1      1233-3.06925E-04-4.18762E-04 6.31548E-05
 -1      1234-3.06920E-04-4.13190E-04 5.38838E-05
 -1      1235-3.06712E-04-4.06988E-04 4.47347E-05
 -1      1236-3.05892E-04-4.01217E-04 3.54465E-05
 -1      1237-3.05146E-04-3.94892E-04 2.66019E-05
 -1      1238-2.68262E-04-4.00616E-04 7.55773E-05
 -1      1239-2.69106E-04-3.94265E-04 6.60715E-05
 -1      1240-2.69632E-04-3.88287E-04 5.65045E-05
 -1      1241-2.69638E-04-3.82767E-04 4.70081E-05
 -1      1242-2.69340E-04-3.76915E-04 3.75692E-05
 -1      1243-2.68672E-04-3.71153E-04 2.82522E-05
 -1      1244-2.67464E-04-3.65415E-04 1.89407E-05
 -1      1245-2.32830E-04-3.68347E-04 6.98854E-05
 -1      1246-2.33892E-04-3.62414E-04 6.01898E-05
 -1      1247-2.34752E-04-3.56502E-04 5.03744E-05
 -1      1248-2.34636E-04-3.51174E-04 4.03058E-05
 -1      1249-2.34112E-04-3.45733E-04 3.05606E-05
 -1      1250-2.33118E-04-3.40414E-04 2.09556E-05
 -1      1251-2.31705E-04-3.34299E-04 1.15078E-05
 -1      1252-1.99014E-04-3.35801E-04 6.44449E-05
 -1      1253-2.00457E-04-3.29822E-04 5.42945E-05
 -1      1254-2.00985E-04-3.24645E-04 4.37659E-05
 -1      1255-2.01278E-04-3.19268E-04 3.38980E-05
 -1      1256-2.00898E-04-3.13860E-04 2.39334E-05
 -1      1257-1.99513E-04-3.09275E-04 1.39290E-05
 -1      1258-1.97795E-04-3.03565E-04 4.31633E-06
 -1      1259-1.67233E-04-3.01409E-04 5.94188E-05
 -1      1260-1.68757E-04-2.95696E-04 4.84263E-05
 -1      1261-1.69168E-04-2.90872E-04 3.81006E-05
 -1      1262-1.69245E-04-2.86126E-04 2.78335E-05
 -1      1263-1.68803E-04-2.81053E-04 1.76752E-05
 -1      1264-1.67576E-04-2.76895E-04 7.58617E-06
 -1      1265-1.65617E-04-2.71525E-04-2.34192E-06
 -1      1266-1.38125E-04-2.66314E-04 5.43598E-05
 -1      1267-1.39870E-04-2.60698E-04 4.37958E-05
 -1      1268-1.40943E-04-2.56086E-04 3.28604E-05
 -1      1269-1.40841E-04-2.51919E-04 2.20856E-05
 -1      1270-1.40431E-04-2.47319E-04 1.18117E-05
 -1      1271-1.38625E-04-2.43378E-04 1.25170E-06
 -1      1272-1.36329E-04-2.39501E-04-8.61363E-06
 -1      1273-1.10745E-04-2.30448E-04 4.98941E-05
 -1      1274-1.12687E-04-2.25084E-04 3.90333E-05
 -1      1275-1.13780E-04-2.20153E-04 2.80292E-05
 -1      1276-1.13642E-04-2.16933E-04 1.69805E-05
 -1      1277-1.12859E-04-2.13077E-04 6.32132E-06
 -1      1278-1.11205E-04-2.09821E-04-4.04581E-06
 -1      1279-1.08915E-04-2.06864E-04-1.40225E-05
 -1      1280-8.75117E-05-1.93145E-04 4.53221E-05
 -1      1281-8.96219E-05-1.88091E-04 3.44140E-05
 -1      1282-9.07750E-05-1.83590E-04 2.33028E-05
 -1      1283-9.06407E-05-1.80680E-04 1.24245E-05
 -1      1284-8.98736E-05-1.77452E-04 1.70534E-06
 -1      1285-8.79922E-05-1.74978E-04-8.73180E-06
 -1      1286-8.51723E-05-1.73051E-04-1.87399E-05
 -1      1287-6.82777E-05-1.55698E-04 4.10626E-05
 -1      1288-7.03710E-05-1.50980E-04 2.97840E-05
 -1      1289-7.16933E-05-1.46692E-04 1.89067E-05
 -1      1290-7.14506E-05-1.44071E-04 8.29749E-06
 -1      1291-7.08324E-05-1.41795E-04-1.70145E-06
 -1      1292-6.87102E-05-1.40335E-04-1.20743E-05
 -1      1293-6.56295E-05-1.39160E-04-2.23438E-05
 -1      1294-5.08556E-05-1.16812E-04 3.52971E-05
 -1      1295-5.27366E-05-1.13154E-04 2.46326E-05
 -1      1296-5.40172E-05-1.08999E-04 1.41934E-05
 -1      1297-5.37344E-05-1.07168E-04 4.95322E-06
 -1      1298-5.32220E-05-1.05719E-04-4.02189E-06
 -1      1299-5.09277E-05-1.04988E-04-1.35461E-05
 -1      1300-4.79224E-05-1.04877E-04-2.30857E-05
 -1      1301-3.72507E-05-7.84533E-05 2.85296E-05
 -1      1302-3.88000E-05-7.40015E-05 1.85304E-05
 -1      1303-3.91604E-05-7.20729E-05 9.53109E-06
 -1      1304-3.92145E-05-7.10130E-05 3.03427E-06
 -1      1305-3.89747E-05-6.99773E-05-4.09832E-06
 -1      1306-3.71671E-05-7.00351E-05-1.17665E-05
 -1      1307-3.48350E-05-6.99439E-05-2.05460E-05
 -1      1308-2.34019E-05-3.89216E-05 1.63060E-05
 -1      1309-2.33666E-05-3.47166E-05 9.11560E-06
 -1      1310-2.26198E-05-3.48374E-05 4.74023E-06
 -1      1311-2.22991E-05-3.51867E-05 1.10653E-06
 -1      1312-2.17982E-05-3.38471E-05-2.50600E-06
 -1      1313-2.23407E-05-3.59141E-05-7.40015E-06
 -1      1314-2.13072E-05-3.46697E-05-1.32898E-05
 -1      1315 0.00000E+00 0.00000E+00 0.00000E+00
 -1      1316 0.00000E+00 0.00000E+00 0.00000E+00
 -1      1317 0.00000E+00 0.00000E+00 0.00000E+00
 -1      1318 0.00000E+00 0.00000E+00 0.00000E+00
 -1      1319 0.00000E+00 0.00000E+00 0.00000E+00
 -1      1320 0.00000E+00 0.00000E+00 0.00000E+00
 -1      1321 0.00000E+00 0.00000E+00 0.00000E+00
 -1      1322 0.00000E+00 0.00000E+00 0.00000E+00
 -1      1323 0.00000E+00 0.00000E+00 0.00000E+00
 -1      1324 0.00000E+00 0.00000E+00 0.00000E+00
 -1      1325 0.00000E+00 0.00000E+00 0.00000E+00
 -1      1326 0.00000E+00 0.00000E+00 0.00000E+00
 -1      1327 0.00000E+00 0.00000E+00 0.00000E+00
 -1      1328 0.00000E+00 0.00000E+00 0.00000E+00
 -1      1329 0.00000E+00 0.00000E+00 0.00000E+00
 -1      1330 0.00000E+00 0.00000E+00 0.00000E+00
 -1      1331 0.00000E+00 0.00000E+00 0.00000E+00
 -1      1332 0.00000E+00 0.00000E+00 0.00000E+00
 -1      1333 0.00000E+00 0.00000E+00 0.00000E+00
 -1      1334 0.00000E+00 0.00000E+00 0.00000E+00
 -1      1335 0.00000E+00 0.00000E+00 0.00000E+00
 -1      1336 0.00000E+00 0.00000E+00 0.00000E+00
 -1      1337 0.00000E+00 0.00000E+00 0.00000E+00
 -1      1338 0.00000E+00 0.00000E+00 0.00000E+00
 -1      1339 0.00000E+00 0.00000E+00 0.00000E+00
 -1      1340 0.00000E+00 0.00000E+00 0.00000E+00
 -1      1341 0.00000E+00 0.00000E+00 0.00000E+00
 -1      1342 0.00000E+00 0.00000E+00 0.00000E+00
 -1      1343 0.00000E+00 0.00000E+00 0.00000E+00
 -1      1344 0.00000E+00 0.00000E+00 0.00000E+00
 -1      1345 0.00000E+00 0.00000E+00 0.00000E+00
 -1      1346 0.00000E+00 0.00000E+00 0.00000E+00
 -1      1347 0.00000E+00 0.00000E+00 0.00000E+00
 -1      1348 0.00000E+00 0.00000E+00 0.00000E+00
 -1      1349 0.00000E+00 0.00000E+00 0.00000E+00
 -1      1350-4.15669E-04-4.16662E-04 9.16896E-05
 -1      1351-7.44399E-05-1.34136E-04 1.64145E-06
 -1      1352-8.22845E-04-8.76821E-04 1.32587E-04
 -1      1353-5.62653E-04-1.04142E-03 1.22068E-04
 -1      1354-8.20504E-04-8.05651E-04 1.53370E-04
 -1      1355-6.39027E-04-1.08729E-03 1.52958E-04
 -1      1356-8.02852E-04-7.48084E-04 1.66571E-04
 -1      1357-1.06255E-04-1.34658E-04 1.16066E-05
 -1      1358-4.93884E-04-5.11215E-04 9.04857E-05
 -1      1359-7.58268E-04-6.61590E-04 1.12864E-04
 -1      1360-8.09407E-04-8.69754E-04 1.16918E-04
 -1      1361-4.57666E-04-1.01747E-03 1.01680E-04
 -1      1362-2.99065E-04-3.55980E-04 2.66671E-05
 -1      1363-5.45800E-04-5.14753E-04 1.28213E-04
 -1      1364-1.69651E-04-2.29006E-04 3.28147E-05
 -1      1365-7.71560E-04-6.92821E-04 1.46857E-04
 -1      1366-4.68118E-04-4.11350E-04 1.17606E-04
 -1      1367-8.65786E-05-1.88066E-04 4.71413E-05
 -1      1368-3.62065E-05-8.85570E-05-1.66309E-05
 -1      1369-4.18474E-04-1.21994E-03 1.01013E-04
 -1      1370-8.33066E-04-8.05320E-04 1.62849E-04
 -1      1371-2.11805E-04-2.00766E-04 1.91780E-05
 -1      1372-6.18128E-04-5.84995E-04 1.01085E-04
 -1      1373-6.48254E-04-1.00931E-03 1.32575E-04
 -1      1374-8.11059E-04-7.59889E-04 1.37459E-04
 -1      1375-6.29416E-05-1.04388E-04 1.45128E-05
 -1      1376-8.06347E-04-8.05920E-04 1.36078E-04
 -1      1377-5.67563E-04-9.46236E-04 1.20230E-04
 -1      1378-5.91399E-04-4.94154E-04 1.27499E-04
 -1      1379-1.83320E-04-2.86747E-04 4.80914E-05
 -1      1380-4.80894E-04-4.60806E-04 1.03596E-04
 -1      1381-1.18196E-04-1.77569E-04 9.86494E-06
 -1      1382-7.89688E-04-9.09985E-04 1.29319E-04
 -1      1383-4.38594E-04-1.09263E-03 1.09217E-04
 -1      1384-8.18088E-04-8.50040E-04 1.53418E-04
 -1      1385-5.42617E-04-1.15253E-03 1.34008E-04
 -1      1386-8.26158E-04-7.77289E-04 1.69981E-04
 -1      1387-1.56954E-04-1.71470E-04 2.07963E-05
 -1      1388-5.57008E-04-5.53376E-04 1.02195E-04
 -1      1389-7.92746E-04-7.09440E-04 1.18887E-04
 -1      1390-7.92866E-04-9.34991E-04 1.13878E-04
 -1      1391-3.63514E-04-4.01811E-04 3.92124E-05
 -1      1392-6.06997E-04-5.57750E-04 1.39214E-04
 -1      1393-2.26165E-04-2.73517E-04 4.33691E-05
 -1      1394-7.94216E-04-7.48011E-04 1.51283E-04
 -1      1395-5.32344E-04-4.57121E-04 1.29979E-04
 -1      1396-1.30110E-04-2.42439E-04 5.51018E-05
 -1      1397-7.16746E-05-1.29226E-04-1.09278E-05
 -1      1398-8.30455E-04-8.32787E-04 1.62539E-04
 -1      1399-2.73061E-04-2.40265E-04 2.96819E-05
 -1      1400-6.74198E-04-6.25005E-04 1.11953E-04
 -1      1401-5.55271E-04-1.04730E-03 1.14913E-04
 -1      1402-8.22450E-04-8.06429E-04 1.39756E-04
 -1      1403-1.06608E-04-1.41425E-04 2.29586E-05
 -1      1404-8.03821E-04-8.66488E-04 1.35663E-04
 -1      1405-4.54043E-04-9.47492E-04 1.10754E-04
 -1      1406-6.47389E-04-5.42816E-04 1.38355E-04
 -1      1407-2.39676E-04-3.37271E-04 5.80284E-05
 -1      1408-5.44566E-04-5.04688E-04 1.15207E-04
 -1      1409-1.69025E-04-2.20981E-04 1.94605E-05
 -1      1410-7.39477E-04-9.43982E-04 1.24280E-04
 -1      1411-8.00981E-04-8.94360E-04 1.50761E-04
 -1      1412-4.18157E-04-1.22363E-03 1.17765E-04
 -1      1413-8.37882E-04-8.04349E-04 1.71314E-04
 -1      1414-2.13303E-04-2.09853E-04 3.09826E-05
 -1      1415-6.17170E-04-5.93726E-04 1.13295E-04
 -1      1416-8.16523E-04-7.57769E-04 1.23343E-04
 -1      1417-7.59673E-04-1.00167E-03 1.07849E-04
 -1      1418-4.29358E-04-4.46719E-04 5.19233E-05
 -1      1419-6.63910E-04-6.00181E-04 1.49286E-04
 -1      1420-2.87001E-04-3.17923E-04 5.46255E-05
 -1      1421-8.05188E-04-8.05303E-04 1.53623E-04
 -1      1422-5.93397E-04-5.03940E-04 1.41686E-04
 -1      1423-1.81083E-04-2.95479E-04 6.34139E-05
 -1      1424-1.15418E-04-1.70522E-04-2.84537E-06
 -1      1425-8.13428E-04-8.58633E-04 1.59752E-04
 -1      1426-3.37165E-04-2.81731E-04 4.05490E-05
 -1      1427-7.24051E-04-6.63840E-04 1.21399E-04
 -1      1428-4.37858E-04-1.08408E-03 9.88434E-05
 -1      1429-8.20290E-04-8.53296E-04 1.39800E-04
 -1      1430-1.57260E-04-1.79525E-04 3.25244E-05
 -1      1431-7.86636E-04-9.29217E-04 1.33009E-04
 -1      1432-6.97101E-04-5.92683E-04 1.47854E-04
 -1      1433-3.00384E-04-3.85665E-04 6.89023E-05
 -1      1434-2.82738E-05-6.26170E-05-8.19106E-06
 -1      1435-6.05109E-04-5.48351E-04 1.26261E-04
 -1      1436-2.25664E-04-2.64521E-04 3.00396E-05
 -1      1437-6.70399E-04-9.80633E-04 1.17217E-04
 -1      1438-7.67383E-04-9.38321E-04 1.45404E-04
 -1      1439-8.36155E-04-8.29218E-04 1.70313E-04
 -1      1440-2.73971E-04-2.50173E-04 4.19970E-05
 -1      1441-6.72922E-04-6.32853E-04 1.23663E-04
 -1      1442-2.85634E-06-3.81971E-05 1.02687E-05
 -1      1443-8.28345E-04-8.06305E-04 1.25642E-04
 -1      1444-7.08506E-04-1.06985E-03 9.92893E-05
 -1      1445-4.95045E-04-4.90466E-04 6.45804E-05
 -1      1446-7.14475E-04-6.42215E-04 1.58440E-04
 -1      1447-3.50717E-04-3.62279E-04 6.63952E-05
 -1      1448-8.02642E-04-8.64063E-04 1.53569E-04
 -1      1449-6.50064E-04-5.51697E-04 1.52823E-04
 -1      1450-2.37996E-04-3.46346E-04 7.30317E-05
 -1      1451-1.66695E-04-2.12513E-04 6.54128E-06
 -1      1452-7.79841E-04-8.82246E-04 1.52983E-04
 -1      1453-4.02641E-04-3.25332E-04 5.17026E-05
 -1      1454-7.66629E-04-7.01184E-04 1.29717E-04
 -1      1455-8.03065E-04-9.00387E-04 1.37307E-04
 -1      1456-1.14507E-05-5.79903E-05 2.52850E-05
 -1      1457-2.13579E-04-2.18838E-04 4.31699E-05
 -1      1458-7.52814E-04-9.93224E-04 1.26887E-04
 -1      1459-7.39889E-04-6.43921E-04 1.56203E-04
 -1      1460-3.63974E-04-4.32616E-04 8.02187E-05
 -1      1461-5.44328E-05-1.16493E-04-6.75372E-06
 -1      1462-6.61204E-04-5.91719E-04 1.36523E-04
 -1      1463-2.86698E-04-3.08296E-04 4.13317E-05
 -1      1464-5.81701E-04-1.02247E-03 1.08178E-04
 -1      1465-7.16042E-04-9.81434E-04 1.36812E-04
 -1      1466-8.19386E-04-8.52454E-04 1.66713E-04
 -1      1467-3.37538E-04-2.92022E-04 5.34211E-05
 -1      1468-7.22477E-04-6.70500E-04 1.32749E-04
 -1      1469-2.62596E-05-7.35871E-05 1.82511E-05
 -1      1470-8.27146E-04-8.55451E-04 1.25622E-04
 -1      1471-6.38463E-04-1.14067E-03 8.82030E-05
 -1      1472-5.59225E-04-5.33417E-04 7.68848E-05
 -1      1473-7.57871E-04-6.83507E-04 1.66099E-04
 -1      1474-4.15795E-04-4.06608E-04 7.83920E-05
 -1      1475-7.85034E-04-9.23508E-04 1.50852E-04
 -1      1476-7.00661E-04-5.99888E-04 1.62579E-04
 -1      1477-2.99221E-04-3.95549E-04 8.33090E-05
 -1      1478-2.93388E-05-6.36906E-05 2.92973E-06
 -1      1479-2.24009E-04-2.55017E-04 1.70234E-05
 -1      1480-7.28958E-04-9.03113E-04 1.42806E-04
 -1      1481-4.68096E-04-3.70771E-04 6.26313E-05
 -1      1482-8.00257E-04-7.37567E-04 1.36481E-04
 -1      1483-7.69779E-04-9.47547E-04 1.32453E-04
 -1      1484-3.58741E-05-1.05696E-04 3.49067E-05
 -1      1485-2.74110E-04-2.59682E-04 5.44520E-05
 -1      1486 8.30638E-08-4.44796E-05 2.00610E-05
 -1      1487-7.01131E-04-1.05883E-03 1.18450E-04
 -1      1488-7.73542E-04-6.96220E-04 1.62918E-04
 -1      1489-4.28988E-04-4.77711E-04 9.17797E-05
 -1      1490-8.89152E-05-1.69399E-04-7.49828E-07
 -1      1491-7.11288E-04-6.34910E-04 1.45633E-04
 -1      1492-3.50617E-04-3.52260E-04 5.31050E-05
 -1      1493-4.73649E-04-1.07456E-03 8.56901E-05
 -1      1494-6.45794E-04-1.02268E-03 1.25437E-04
 -1      1495-7.86539E-04-8.73702E-04 1.59619E-04
 -1      1496-4.02588E-04-3.35513E-04 6.49587E-05
 -1      1497-7.64754E-04-7.06405E-04 1.40764E-04
 -1      1498-6.14430E-05-1.10555E-04 2.61886E-05
 -1      1499-8.10467E-04-9.05365E-04 1.22770E-04
 -1      1500-1.41864E-05-5.13233E-05 1.27264E-05
 -1      1501-5.48027E-04-1.21168E-03 7.34578E-05
 -1      1502-6.20342E-04-5.75238E-04 8.87262E-05
 -1      1503-7.92478E-04-7.24416E-04 1.72122E-04
 -1      1504-4.80764E-04-4.50939E-04 9.03416E-05
 -1      1505-7.51282E-04-9.85108E-04 1.44823E-04
 -1      1506-7.43974E-04-6.50171E-04 1.71354E-04
 -1      1507-3.63368E-04-4.42767E-04 9.40338E-05
 -1      1508-5.59807E-05-1.19252E-04 8.03288E-06
 -1      1509-2.85609E-04-2.98045E-04 2.82807E-05
 -1      1510-6.59208E-04-9.20069E-04 1.28676E-04
 -1      1511-5.32036E-04-4.18172E-04 7.32903E-05
 -1      1512-8.23327E-04-7.72866E-04 1.41191E-04
 -1      1513-7.18460E-04-9.94589E-04 1.25335E-04
 -1      1514-7.11093E-05-1.53004E-04 4.27102E-05
 -1      1515-3.37627E-04-3.01922E-04 6.62960E-05
 -1      1516-2.32414E-05-8.08331E-05 2.91615E-05
 -1      1517-6.30600E-04-1.12331E-03 1.07549E-04
 -1      1518-7.96611E-04-7.49693E-04 1.67659E-04
 -1      1519-4.93905E-04-5.21018E-04 1.03273E-04
 -1      1520-1.32329E-04-2.20300E-04 7.87415E-06
 -1      1521-7.54017E-04-6.77782E-04 1.53515E-04
 -1      1522-4.15870E-04-3.96507E-04 6.51094E-05
 -1      1523-5.54771E-04-1.06108E-03 1.11458E-04
 -1      1524-7.35848E-04-8.92254E-04 1.47260E-04
 -1      1525-4.67485E-04-3.80845E-04 7.64854E-05
 -1      1526-7.98122E-04-7.41055E-04 1.47019E-04
 -1      1527-1.05200E-04-1.48777E-04 3.47876E-05
 -1      1528-7.77784E-04-9.55839E-04 1.17923E-04
 -1      1529-3.92077E-05-9.84238E-05 2.10786E-05
 -1      1530-4.41480E-04-1.28398E-03 5.05577E-05
 -1      1531-6.77027E-04-6.16067E-04 9.97989E-05
 -1      1532-8.16034E-04-7.64751E-04 1.76487E-04
 -1      1533-5.44230E-04-4.95271E-04 1.01997E-04
 -1      1534-6.99505E-04-1.04725E-03 1.35385E-04
 -1      1535-7.78330E-04-7.00555E-04 1.78272E-04
 -1      1536-4.28907E-04-4.88019E-04 1.05023E-04
 -1      1537-9.04774E-05-1.74287E-04 1.48224E-05
 -1      1538-3.50085E-04-3.41666E-04 3.99333E-05
 -1      1539-5.69449E-04-9.28842E-04 1.09590E-04
 -1      1540-5.92852E-04-4.67756E-04 8.35761E-05
 -1      1541-8.34448E-04-8.06968E-04 1.43994E-04
 -1      1542-6.48259E-04-1.04090E-03 1.16422E-04
 -1      1543-1.14902E-04-1.99839E-04 5.10794E-05
 -1      1544-4.02490E-04-3.45470E-04 7.82708E-05
 -1      1545-5.80273E-05-1.18424E-04 3.79429E-05
 -1      1546-5.40071E-04-1.18822E-03 9.10304E-05
 -1      1547-8.07769E-04-8.04405E-04 1.70411E-04
 -1      1548-5.57202E-04-5.62760E-04 1.14526E-04
 -1      1549-1.82963E-04-2.70402E-04 1.78106E-05
 -1      1550-7.87684E-04-7.20350E-04 1.59745E-04
 -1      1551-4.81081E-04-4.41039E-04 7.69937E-05
 -1      1552-4.39806E-04-1.09698E-03 9.45538E-05
 -1      1553-6.66315E-04-9.10252E-04 1.30995E-04
 -1      1554-5.30778E-04-4.27859E-04 8.77303E-05
 -1      1555-8.20834E-04-7.74566E-04 1.51505E-04
 -1      1556-1.56055E-04-1.87753E-04 4.46301E-05
 -1      1557-7.27126E-04-1.00686E-03 1.11567E-04
 -1      1558-7.42505E-05-1.45457E-04 2.86864E-05
 -1      1559-7.27693E-04-6.56426E-04 1.09544E-04
 -1      1560-8.28229E-04-8.04440E-04 1.78913E-04
 -1      1561-6.04623E-04-5.39592E-04 1.13096E-04
 -1      1562-6.28139E-04-1.10844E-03 1.22490E-04
 -1      1563-8.02003E-04-7.51946E-04 1.83128E-04
 -1      1564-4.94332E-04-5.31100E-04 1.16004E-04
 -1      1565-1.33458E-04-2.27192E-04 2.32231E-05
 -1      1566-4.15991E-04-3.85826E-04 5.17659E-05
 -1      1567-4.56392E-04-9.27231E-04 9.18341E-05
 -1      1568-6.49166E-04-5.19077E-04 9.27263E-05
 -1      1569-8.32349E-04-8.39758E-04 1.44592E-04
 -1      1570-2.48752E-05-6.36162E-05-2.11345E-05
 -1      1571-5.58053E-04-1.08662E-03 1.04156E-04
 -1      1572-1.66277E-04-2.46243E-04 6.02922E-05
 -1      1573-4.67282E-04-3.90636E-04 9.02928E-05
 -1      1574-1.02013E-04-1.57223E-04 4.66168E-05
 -1      1575-4.31116E-04-1.25020E-03 6.88441E-05
 -1      1576-8.05590E-04-8.60612E-04 1.70863E-04
 -1      1577-6.17498E-04-6.02391E-04 1.25266E-04
 -1      1578-2.39439E-04-3.19298E-04 2.88083E-05
 -1      1579-8.10944E-04-7.62629E-04 1.64068E-04
 -1      1580-5.44735E-04-4.85787E-04 8.85883E-05
 -1      1581-5.75132E-04-9.29115E-04 1.07665E-04
 -1      1582-5.91130E-04-4.76802E-04 9.84655E-05
 -1      1583-8.31833E-04-8.06019E-04 1.53864E-04
 -1      1584-2.12660E-04-2.27808E-04 5.54380E-05
 -1      1585-6.56669E-04-1.05962E-03 1.02349E-04
 -1      1586-1.17913E-04-1.91694E-04 3.70384E-05
 -1      1587-7.71017E-04-6.95141E-04 1.18396E-04
 -1      1588-8.27085E-04-8.44012E-04 1.78623E-04
 -1      1589-6.60420E-04-5.83909E-04 1.23365E-04
 -1      1590-5.36803E-04-1.16921E-03 1.05269E-04
 -1      1591-8.14156E-04-8.04629E-04 1.86532E-04
 -1      1592-5.58191E-04-5.72382E-04 1.26737E-04
 -1      1593-1.83933E-04-2.78473E-04 3.28883E-05
 -1      1594-4.81860E-04-4.30518E-04 6.35390E-05
 -1      1595-6.99517E-04-5.72394E-04 1.01155E-04
 -1      1596-8.14680E-04-8.71040E-04 1.42741E-04
 -1      1597-5.05262E-05-1.14425E-04-2.16989E-05
 -1      1598-4.45726E-04-1.13280E-03 8.12799E-05
 -1      1599-2.23659E-04-2.92223E-04 7.05262E-05
 -1      1600-5.30415E-04-4.37134E-04 1.02005E-04
 -1      1601-1.53333E-04-1.96958E-04 5.66139E-05
 -1      1602-7.88086E-04-9.17991E-04 1.67921E-04
 -1      1603-6.73370E-04-6.40600E-04 1.35043E-04
 -1      1604-2.82296E-06-3.57270E-05-1.28525E-05
 -1      1605-3.00278E-04-3.66516E-04 4.05477E-05
 -1      1606-8.22442E-04-8.04778E-04 1.66401E-04
 -1      1607-6.05298E-04-5.30784E-04 9.96769E-05
 -1      1608-4.55232E-04-9.58284E-04 8.93589E-05
 -1      1609-6.46959E-04-5.27220E-04 1.08245E-04
 -1      1610-8.29302E-04-8.35938E-04 1.53902E-04
 -1      1611-2.73509E-04-2.69397E-04 6.70748E-05
 -1      1612-5.67194E-04-1.11603E-03 8.95111E-05
 -1      1613-1.68805E-04-2.37338E-04 4.64504E-05
 -1      1614-8.05148E-04-7.33204E-04 1.25204E-04
 -1      1615-8.10277E-04-8.82704E-04 1.75284E-04
 -1      1616-7.10359E-04-6.28254E-04 1.32591E-04
 -1      1617-4.22938E-04-1.22804E-03 8.50632E-05
 -1      1618-8.12384E-04-8.58507E-04 1.86879E-04
 -1      1619-6.19135E-04-6.11494E-04 1.36939E-04
 -1      1620-2.40117E-04-3.28286E-04 4.33014E-05
 -1      1621-5.46144E-04-4.75693E-04 7.50525E-05
 -1      1622-7.42576E-04-6.28263E-04 1.08074E-04
 -1      1623-7.81523E-04-9.01842E-04 1.39072E-04
 -1      1624-8.55614E-05-1.64157E-04-1.53936E-05
 -1      1625-2.85228E-04-3.37784E-04 8.16191E-05
 -1      1626-1.48161E-05-4.85968E-05 3.16729E-06
 -1      1627-5.90593E-04-4.85457E-04 1.13109E-04
 -1      1628-2.10571E-04-2.37788E-04 6.79640E-05
 -1      1629-7.54860E-04-9.76773E-04 1.62141E-04
 -1      1630-7.23025E-04-6.77087E-04 1.43921E-04
 -1      1631-2.52839E-05-6.39328E-05-1.20551E-05
 -1      1632-3.64050E-04-4.12702E-04 5.27746E-05
 -1      1633-8.20259E-04-8.46708E-04 1.66245E-04
 -1      1634-6.61381E-04-5.76095E-04 1.09913E-04
 -1      1635-6.96583E-04-5.79347E-04 1.17159E-04
 -1      1636-8.12112E-04-8.65747E-04 1.51764E-04
 -1      1637-2.90705E-05-6.68708E-05 1.46420E-05
 -1      1638-3.37277E-04-3.11832E-04 7.92118E-05
 -1      1639-4.58005E-04-1.17410E-03 6.64733E-05
 -1      1640-2.25494E-04-2.82612E-04 5.68826E-05
 -1      1641-8.28841E-04-7.70538E-04 1.30021E-04
 -1      1642-7.77930E-04-9.20640E-04 1.68402E-04
 -1      1643-7.52896E-04-6.72617E-04 1.40459E-04
 -1      1644-7.95981E-04-9.12213E-04 1.84145E-04
 -1      1645-6.75402E-04-6.48705E-04 1.46129E-04
 -1      1646-3.82683E-06-3.44699E-05-4.42856E-06
 -1      1647-3.00688E-04-3.76187E-04 5.46445E-05
 -1      1648-6.07348E-04-5.21371E-04 8.60199E-05
 -1      1649-7.76557E-04-6.85302E-04 1.13003E-04
 -1      1650-7.30053E-04-9.29832E-04 1.33082E-04
 -1      1651-1.29174E-04-2.13273E-04-7.17397E-06
 -1      1652-3.49730E-04-3.82785E-04 9.31483E-05
 -1      1653-4.00908E-05-9.34638E-05 8.03870E-06
 -1      1654-6.46317E-04-5.35000E-04 1.23464E-04
 -1      1655-2.72088E-04-2.79746E-04 7.97551E-05
 -1      1656-7.03075E-04-1.03617E-03 1.51698E-04
 -1      1657-7.65469E-04-7.11680E-04 1.51304E-04
 -1      1658-6.02577E-05-9.51322E-05-6.58959E-06
 -1      1659-4.29210E-04-4.57633E-04 6.52083E-05
 -1      1660-8.03268E-04-8.88282E-04 1.63307E-04
 -1      1661-7.11491E-04-6.21665E-04 1.19068E-04
 -1      1662-7.39011E-04-6.33593E-04 1.24500E-04
 -1      1663-7.77983E-04-8.91600E-04 1.46239E-04
 -1      1664-4.02428E-04-3.55542E-04 9.16111E-05
 -1      1665-5.52630E-05-1.24542E-04 2.34220E-05
 -1      1666-2.86532E-04-3.27559E-04 6.80359E-05
 -1      1667-1.41446E-05-4.69461E-05-6.26469E-06
 -1      1668-8.40883E-04-8.06578E-04 1.33424E-04
 -1      1669-7.27426E-04-9.58892E-04 1.57915E-04
 -1      1670-7.86314E-04-7.16932E-04 1.46658E-04
 -1      1671-7.62922E-04-9.68442E-04 1.78850E-04
 -1      1672-7.25888E-04-6.83863E-04 1.54607E-04
 -1      1673-2.75965E-05-6.59905E-05-2.19234E-06
 -1      1674-3.64214E-04-4.22656E-04 6.64598E-05
 -1      1675-6.64238E-04-5.67640E-04 9.60709E-05
 -1      1676-7.99837E-04-7.44630E-04 1.16772E-04
 -1      1677-6.60579E-04-9.58953E-04 1.26244E-04
 -1      1678-1.80262E-04-2.61875E-04 3.10663E-06
 -1      1679-4.15615E-04-4.27311E-04 1.04969E-04
 -1      1680-7.52321E-05-1.39199E-04 1.49185E-05
 -1      1681-6.95853E-04-5.86005E-04 1.32569E-04
 -1      1682-2.67601E-05-7.42838E-05 2.93141E-05
 -1      1683-3.36547E-04-3.22638E-04 9.22239E-05
 -1      1684-6.31601E-04-1.09733E-03 1.36451E-04
 -1      1685-7.98916E-04-7.44614E-04 1.57014E-04
 -1      1686-1.03979E-04-1.28156E-04 7.64344E-07
 -1      1687-4.94266E-04-5.01242E-04 7.75788E-05
 -1      1688-7.70089E-04-9.29445E-04 1.57093E-04
 -1      1689-7.54180E-04-6.67492E-04 1.26838E-04
 -1      1690-4.00382E-06-3.61045E-05 2.83386E-06
 -1      1691-7.72674E-04-6.89370E-04 1.30351E-04
 -1      1692-7.26988E-04-9.15878E-04 1.39115E-04
 -1      1693-4.67471E-04-4.00622E-04 1.03999E-04
 -1      1694-8.97177E-05-1.80499E-04 3.09359E-05
 -1      1695-3.50452E-04-3.72243E-04 7.97346E-05
 -1      1696-3.93238E-05-9.04682E-05-4.40009E-06
 -1      1697-8.39234E-04-8.41429E-04 1.34127E-04
 -1      1698-6.55969E-04-9.98064E-04 1.41556E-04
 -1      1699-8.09384E-04-7.61272E-04 1.51141E-04
 -1      1700-7.11829E-04-1.02625E-03 1.68549E-04
 -1      1701-7.68527E-04-7.17116E-04 1.61326E-04
 -1      1702-6.24837E-05-9.94007E-05 3.19995E-06
 -1      1703-4.29094E-04-4.67697E-04 7.84949E-05
 -1      1704-7.14977E-04-6.14441E-04 1.05227E-04
 -1      1705-8.11493E-04-8.06496E-04 1.18012E-04
 -1      1706-5.69942E-04-9.86621E-04 1.18229E-04
 -1      1707-2.37445E-04-3.09589E-04 1.45735E-05
 -1      1708-4.81501E-04-4.71322E-04 1.16742E-04
 -1      1709-1.18965E-04-1.84332E-04 2.32590E-05
 -1      1710-7.38154E-04-6.38770E-04 1.40591E-04
 -1      1711-5.20333E-05-1.31785E-04 3.99389E-05
 -1      1712-4.02365E-04-3.66441E-04 1.04935E-04
 -1      1713-1.14402E-05-4.79341E-05-1.73872E-05
 -1      1714-5.36788E-04-1.15875E-03 1.18391E-04
 -1      1715-8.21959E-04-7.75971E-04 1.61359E-04
 -1      1716-1.54993E-04-1.63358E-04 9.46294E-06
 -1      1717-5.57693E-04-5.43910E-04 8.96828E-05
 -1      1718-7.19015E-04-9.69971E-04 1.46961E-04
 -1      1719-7.87857E-04-7.13529E-04 1.33105E-04
 -1      1720-2.75752E-05-6.89489E-05 7.74222E-06
 -1      1721-7.95313E-04-7.46573E-04 1.34370E-04
 -1      1722-6.56774E-04-9.35540E-04 1.29393E-04
 -1      1723-5.30962E-04-4.46695E-04 1.16065E-04
 -1      1724-1.32694E-04-2.34586E-04 3.89938E-05
 -1      1725-9.96367E-06-3.12805E-05-9.95688E-06
 -1      1726-1.09550E-05-3.11231E-05-2.14336E-06
 -1      1727-3.10738E-05-7.83349E-05-1.37129E-05
 -1      1728-6.14840E-05-1.25647E-04-9.91679E-06
 -1      1729-3.32074E-05-7.94053E-05-8.73189E-07
 -1      1730-6.36163E-05-1.29181E-04 4.17479E-06
 -1      1731-1.01090E-04-1.72283E-04-2.46871E-06
 -1      1732-1.48404E-04-2.18501E-04 6.61958E-06
 -1      1733-1.03012E-04-1.78195E-04 1.16547E-05
 -1      1734-1.50237E-04-2.25887E-04 2.07600E-05
 -1      1735-2.02528E-04-2.64172E-04 1.70382E-05
 -1      1736-2.61827E-04-3.09721E-04 2.83070E-05
 -1      1737-2.03932E-04-2.72934E-04 3.09467E-05
 -1      1738-2.62824E-04-3.19256E-04 4.19975E-05
 -1      1739-3.24700E-04-3.54704E-04 4.01694E-05
 -1      1740-3.89751E-04-3.99250E-04 5.23619E-05
 -1      1741-3.25257E-04-3.64854E-04 5.36865E-05
 -1      1742-3.89847E-04-4.09701E-04 6.57395E-05
 -1      1743-4.55426E-04-4.43808E-04 6.46087E-05
 -1      1744-5.20319E-04-4.87816E-04 7.66873E-05
 -1      1745-4.55121E-04-4.54015E-04 7.78416E-05
 -1      1746-5.19461E-04-4.97787E-04 8.97930E-05
 -1      1747-5.82865E-04-5.31347E-04 8.83297E-05
 -1      1748-6.41642E-04-5.74736E-04 9.93103E-05
 -1      1749-5.81622E-04-5.40793E-04 1.01282E-04
 -1      1750-6.39933E-04-5.83231E-04 1.12120E-04
 -1      1751-1.46870E-06-2.31736E-05-7.67195E-06
 -1      1752-2.38570E-06-2.37221E-05-1.25581E-06
 -1      1753-1.82840E-05-5.86945E-05-1.01155E-05
 -1      1754-4.84833E-05-9.58097E-05-6.39000E-06
 -1      1755-1.96340E-05-6.01664E-05 2.64901E-07
 -1      1756-4.98281E-05-9.94873E-05 5.12410E-06
 -1      1757-8.81381E-05-1.33625E-04 5.91799E-07
 -1      1758-1.35459E-04-1.72453E-04 9.30418E-06
 -1      1759-8.95557E-05-1.39425E-04 1.25191E-05
 -1      1760-1.37061E-04-1.80006E-04 2.15262E-05
 -1      1761-1.89682E-04-2.12470E-04 1.90832E-05
 -1      1762-2.48796E-04-2.53431E-04 2.97262E-05
 -1      1763-1.90741E-04-2.21008E-04 3.15320E-05
 -1      1764-2.49634E-04-2.62930E-04 4.24320E-05
 -1      1765-3.11516E-04-2.95592E-04 4.10091E-05
 -1      1766-3.76474E-04-3.38917E-04 5.25819E-05
 -1      1767-3.12023E-04-3.05608E-04 5.38982E-05
 -1      1768-3.76558E-04-3.49220E-04 6.57426E-05
 -1      1769-4.42034E-04-3.83338E-04 6.41595E-05
 -1      1770-5.06829E-04-4.28940E-04 7.55738E-05
 -1      1771-4.41783E-04-3.93566E-04 7.76281E-05
 -1      1772-5.06109E-04-4.38778E-04 8.93621E-05
 -1      1773-5.69226E-04-4.75589E-04 8.66313E-05
 -1      1774-6.27887E-04-5.23344E-04 9.69222E-05
 -1      1775-5.68244E-04-4.85014E-04 1.00672E-04
 -1      1776-6.26491E-04-5.32018E-04 1.11296E-04
 -1      1777-6.95238E-04-6.17706E-04 1.09365E-04
 -1      1778-7.42041E-04-6.60313E-04 1.18091E-04
 -1      1779-6.92977E-04-6.25214E-04 1.21979E-04
 -1      1780-7.39445E-04-6.66510E-04 1.30635E-04
 -1      1781-7.80715E-04-7.02501E-04 1.25513E-04
 -1      1782-8.09625E-04-7.44428E-04 1.31112E-04
 -1      1783-7.77595E-04-7.07126E-04 1.37861E-04
 -1      1784-8.05993E-04-7.47184E-04 1.43276E-04
 -1      1785-8.27246E-04-7.86036E-04 1.34664E-04
 -1      1786-8.32758E-04-8.27139E-04 1.36252E-04
 -1      1787-8.23331E-04-7.86735E-04 1.46849E-04
 -1      1788-8.27908E-04-8.25417E-04 1.48179E-04
 -1      1789-8.23263E-04-8.68015E-04 1.35452E-04
 -1      1790-7.98212E-04-9.08744E-04 1.32147E-04
 -1      1791-8.18252E-04-8.63817E-04 1.47090E-04
 -1      1792-7.93047E-04-9.01253E-04 1.43712E-04
 -1      1793-7.57029E-04-9.49584E-04 1.27317E-04
 -1      1794-6.95951E-04-9.89561E-04 1.20314E-04
 -1      1795-7.50826E-04-9.37604E-04 1.37578E-04
 -1      1796-6.90239E-04-9.72436E-04 1.29684E-04
 -1      1797-6.15973E-04-1.03165E-03 1.11895E-04
 -1      1798-5.15976E-04-1.07666E-03 9.66802E-05
 -1      1799-6.10786E-04-1.00396E-03 1.20395E-04
 -1      1800-5.09586E-04-1.03317E-03 1.08184E-04
 -1      1801-3.97438E-04-1.12380E-03 6.39758E-05
 -1      1802-3.81441E-04-1.06869E-03 8.02754E-05
 -1      1803-6.81376E-04-5.72409E-04 1.06288E-04
 -1      1804-7.28039E-04-6.22565E-04 1.14451E-04
 -1      1805-6.79494E-04-5.79752E-04 1.20944E-04
 -1      1806-7.25940E-04-6.28531E-04 1.29411E-04
 -1      1807-7.66609E-04-6.73549E-04 1.21109E-04
 -1      1808-7.95341E-04-7.26037E-04 1.26013E-04
 -1      1809-7.64065E-04-6.78382E-04 1.36402E-04
 -1      1810-7.92433E-04-7.28616E-04 1.41647E-04
 -1      1811-8.12930E-04-7.79519E-04 1.29130E-04
 -1      1812-8.18002E-04-8.33809E-04 1.29906E-04
 -1      1813-8.09667E-04-7.80112E-04 1.44911E-04
 -1      1814-8.14131E-04-8.32305E-04 1.45876E-04
 -1      1815-8.08571E-04-8.89831E-04 1.28173E-04
 -1      1816-7.83616E-04-9.46162E-04 1.24293E-04
 -1      1817-8.04539E-04-8.85258E-04 1.44684E-04
 -1      1818-7.79286E-04-9.38994E-04 1.40552E-04
 -1      1819-7.41756E-04-1.00371E-03 1.17638E-04
 -1      1820-6.80861E-04-1.06187E-03 1.09163E-04
 -1      1821-7.36884E-04-9.93482E-04 1.33598E-04
 -1      1822-6.75872E-04-1.04725E-03 1.23945E-04
 -1      1823-6.00440E-04-1.12086E-03 9.75972E-05
 -1      1824-5.00791E-04-1.18010E-03 7.95935E-05
 -1      1825-5.95489E-04-1.10002E-03 1.11089E-04
 -1      1826-4.94205E-04-1.15089E-03 9.36528E-05
 -1      1827-3.83332E-04-1.23536E-03 5.07106E-05
 -1      1828-3.69167E-04-1.20076E-03 6.83528E-05
 -1      1829-1.09873E-05-3.23878E-05 4.95081E-06
 -1      1830-1.04475E-05-3.51111E-05 1.31732E-05
 -1      1831-3.34254E-05-8.22085E-05 1.16083E-05
 -1      1832-6.38363E-05-1.33928E-04 1.86249E-05
 -1      1833-3.17069E-05-8.80979E-05 2.56538E-05
 -1      1834-6.18731E-05-1.40634E-04 3.36877E-05
 -1      1835-1.03072E-04-1.84524E-04 2.63340E-05
 -1      1836-1.50257E-04-2.33493E-04 3.52281E-05
 -1      1837-1.01200E-04-1.91816E-04 4.14117E-05
 -1      1838-1.48418E-04-2.41788E-04 4.99648E-05
 -1      1839-2.03965E-04-2.81528E-04 4.51330E-05
 -1      1840-2.62839E-04-3.28543E-04 5.58984E-05
 -1      1841-2.02682E-04-2.90502E-04 5.95087E-05
 -1      1842-2.61827E-04-3.38089E-04 6.99415E-05
 -1      1843-3.25224E-04-3.74607E-04 6.73196E-05
 -1      1844-3.89764E-04-4.19690E-04 7.91344E-05
 -1      1845-3.24541E-04-3.84578E-04 8.10944E-05
 -1      1846-3.89509E-04-4.29786E-04 9.25534E-05
 -1      1847-4.54988E-04-4.63965E-04 9.10339E-05
 -1      1848-5.19313E-04-5.07422E-04 1.02758E-04
 -1      1849-4.55062E-04-4.74172E-04 1.04152E-04
 -1      1850-5.19839E-04-5.17235E-04 1.15574E-04
 -1      1851-5.81445E-04-5.49860E-04 1.14072E-04
 -1      1852-6.39691E-04-5.91483E-04 1.24694E-04
 -1      1853-5.82312E-04-5.59093E-04 1.26576E-04
 -1      1854-6.40926E-04-6.00132E-04 1.36930E-04
 -1      1855-2.00130E-06-2.46550E-05 4.43174E-06
 -1      1856-3.49791E-07-2.66951E-05 1.05399E-05
 -1      1857-1.93093E-05-6.28744E-05 1.02991E-05
 -1      1858-4.95041E-05-1.04228E-04 1.72861E-05
 -1      1859-1.74641E-05-6.82021E-05 2.16029E-05
 -1      1860-4.74597E-05-1.10672E-04 2.97670E-05
 -1      1861-8.92947E-05-1.45727E-04 2.51727E-05
 -1      1862-1.36714E-04-1.87583E-04 3.41970E-05
 -1      1863-8.71463E-05-1.53124E-04 3.80058E-05
 -1      1864-1.34770E-04-1.95701E-04 4.70176E-05
 -1      1865-1.90532E-04-2.29712E-04 4.43216E-05
 -1      1866-2.49458E-04-2.72230E-04 5.53068E-05
 -1      1867-1.88989E-04-2.38673E-04 5.72165E-05
 -1      1868-2.48280E-04-2.81811E-04 6.83299E-05
 -1      1869-3.11874E-04-3.15358E-04 6.69377E-05
 -1      1870-3.76451E-04-3.59160E-04 7.89411E-05
 -1      1871-3.11163E-04-3.25464E-04 8.00225E-05
 -1      1872-3.76176E-04-3.69591E-04 9.21789E-05
 -1      1873-4.41722E-04-4.03505E-04 9.10373E-05
 -1      1874-5.06086E-04-4.48419E-04 1.02990E-04
 -1      1875-4.41842E-04-4.13692E-04 1.04413E-04
 -1      1876-5.06753E-04-4.58347E-04 1.16496E-04
 -1      1877-5.68251E-04-4.94064E-04 1.14488E-04
 -1      1878-6.26548E-04-5.40255E-04 1.25317E-04
 -1      1879-5.69256E-04-5.03432E-04 1.28127E-04
 -1      1880-6.28088E-04-5.48719E-04 1.39119E-04
 -1      1881-6.92713E-04-6.32415E-04 1.34329E-04
 -1      1882-7.39163E-04-6.72331E-04 1.42795E-04
 -1      1883-6.94449E-04-6.39737E-04 1.46303E-04
 -1      1884-7.40959E-04-6.78538E-04 1.54536E-04
 -1      1885-7.77213E-04-7.11229E-04 1.49767E-04
 -1      1886-8.05670E-04-7.49570E-04 1.55079E-04
 -1      1887-7.79745E-04-7.15941E-04 1.61130E-04
 -1      1888-8.08325E-04-7.52082E-04 1.66088E-04
 -1      1889-8.22998E-04-7.86807E-04 1.58378E-04
 -1      1890-8.27515E-04-8.23266E-04 1.59359E-04
 -1      1891-8.25988E-04-7.87319E-04 1.69180E-04
 -1      1892-8.31325E-04-8.21435E-04 1.69857E-04
 -1      1893-8.17914E-04-8.58969E-04 1.58116E-04
 -1      1894-7.92852E-04-8.93591E-04 1.53771E-04
 -1      1895-8.21626E-04-8.54206E-04 1.68126E-04
 -1      1896-7.97152E-04-8.85972E-04 1.63257E-04
 -1      1897-7.50606E-04-9.26336E-04 1.46343E-04
 -1      1898-6.90279E-04-9.56983E-04 1.35657E-04
 -1      1899-7.55772E-04-9.16293E-04 1.54438E-04
 -1      1900-6.95169E-04-9.45138E-04 1.41226E-04
 -1      1901-6.10088E-04-9.83340E-04 1.22009E-04
 -1      1902-5.07994E-04-1.00447E-03 1.06664E-04
 -1      1903-6.14557E-04-9.72582E-04 1.22649E-04
 -1      1904-5.10190E-04-1.00079E-03 1.01930E-04
 -1      1905-3.78193E-04-1.01593E-03 9.32079E-05
 -1      1906-3.70997E-04-1.03503E-03 9.96699E-05
 -1      1907-6.79539E-04-5.86953E-04 1.35205E-04
 -1      1908-7.26018E-04-6.34346E-04 1.43876E-04
 -1      1909-6.81654E-04-5.94442E-04 1.49183E-04
 -1      1910-7.28429E-04-6.40761E-04 1.57912E-04
 -1      1911-7.64236E-04-6.82404E-04 1.51105E-04
 -1      1912-7.92642E-04-7.31007E-04 1.56480E-04
 -1      1913-7.67143E-04-6.87080E-04 1.65364E-04
 -1      1914-7.96090E-04-7.33776E-04 1.70925E-04
 -1      1915-8.09995E-04-7.80196E-04 1.60062E-04
 -1      1916-8.14563E-04-8.30328E-04 1.61312E-04
 -1      1917-8.13815E-04-7.80749E-04 1.74540E-04
 -1      1918-8.19384E-04-8.28413E-04 1.76045E-04
 -1      1919-8.04890E-04-8.80756E-04 1.59980E-04
 -1      1920-7.79816E-04-9.32035E-04 1.55649E-04
 -1      1921-8.09998E-04-8.76376E-04 1.74686E-04
 -1      1922-7.85214E-04-9.24662E-04 1.70092E-04
 -1      1923-7.37458E-04-9.83126E-04 1.48079E-04
 -1      1924-6.76452E-04-1.03412E-03 1.36119E-04
 -1      1925-7.43415E-04-9.73340E-04 1.62096E-04
 -1      1926-6.82465E-04-1.02347E-03 1.48819E-04
 -1      1927-5.95020E-04-1.08439E-03 1.20885E-04
 -1      1928-4.90871E-04-1.13237E-03 1.03607E-04
 -1      1929-5.99002E-04-1.07412E-03 1.31493E-04
 -1      1930-4.92334E-04-1.12687E-03 1.13840E-04
 -1      1931-3.59798E-04-1.17990E-03 8.79796E-05
 -1      1932-3.56046E-04-1.18139E-03 1.04282E-04
 -1      1933-4.77131E-04-1.20302E-03 1.02713E-04
 -1      1934-7.54831E-04-6.54532E-04 1.20795E-04
 -1      1935-6.95490E-04-6.47705E-04 1.08571E-04
 -1      1936-7.73827E-04-7.02439E-04 1.43093E-04
 -1      1937-6.16358E-04-5.14680E-04 1.37986E-04
 -1      1938-8.27169E-04-8.38229E-04 1.56036E-04
 -1      1939-3.32071E-04-1.27406E-03 7.09764E-05
 -1      1940-8.08448E-04-8.36122E-04 1.22964E-04
 -1      1941-4.29605E-04-3.45918E-04 6.48705E-05
 -1      1942-6.28071E-04-5.18621E-04 1.53577E-04
 -1      1943-1.23386E-04-2.24577E-04 2.52626E-05
 -1      1944-3.06152E-04-2.71063E-04 5.34660E-05
 -1      1945-7.98571E-04-7.68486E-04 1.62016E-04
 -1      1946-2.69195E-04-1.27669E-03 1.26592E-04
 -1      1947-1.73457E-04-1.78542E-04 3.98772E-05
 -1      1948-6.69081E-04-1.09701E-03 1.25153E-04
 -1      1949-3.34385E-04-1.27975E-03 1.44555E-05
 -1      1950-7.92132E-04-9.03017E-04 1.42167E-04
 -1      1951-3.05744E-04-2.62951E-04 4.32191E-05
 -1      1952-2.36950E-04-2.18201E-04 3.10730E-05
 -1      1953-1.29147E-04-1.43950E-04 8.63788E-06
 -1      1954-1.43478E-05-2.91645E-05-4.04244E-06
 -1      1955-4.81588E-04-3.67710E-04 7.07447E-05
 -1      1956 2.44753E-06-7.41158E-06-4.53144E-06
 -1      1957 6.62511E-07-1.05382E-05-1.91872E-06
 -1      1958 2.77662E-06-1.76244E-05-6.97358E-06
 -1      1959 2.92295E-06-9.76888E-06 6.61595E-06
 -1      1960-1.54583E-05-3.28923E-05 3.01471E-06
 -1      1961 3.92808E-06-2.14797E-05 9.00230E-06
 -1      1962 5.63786E-06-1.11070E-05-5.66455E-06
 -1      1963-8.09196E-04-7.59663E-04 1.51649E-04
 -1      1964-1.56855E-04-2.44700E-04 2.30960E-06
 -1      1965 7.91606E-07-1.02608E-05 2.44701E-08
 -1      1966 2.13397E-06-1.91042E-05 6.02603E-06
 -1      1967 3.32881E-06-5.52858E-06-3.08081E-07
 -1      1968-6.76381E-04-5.71797E-04 1.54254E-04
 -1      1969-5.85337E-06-2.74312E-05-1.19267E-05
 -1      1970-3.59919E-06-1.36345E-05-2.34482E-06
 -1      1971-1.44927E-05-3.24366E-05-1.18098E-05
 -1      1972-4.32079E-05-9.17145E-05-2.23731E-06
 -1      1973-8.35256E-04-8.17572E-04 1.65746E-04
 -1      1974-1.47095E-05-3.16020E-05 6.46973E-06
 -1      1975-7.84782E-04-7.32709E-04 1.60601E-04
 -1      1976-8.27864E-04-8.40733E-04 1.51283E-04
 -1      1977-7.90645E-05-1.12785E-04 1.13586E-05
 -1      1978-1.27526E-05-4.78050E-05-9.79969E-06
 -1      1979-3.20941E-04-1.34611E-03 8.90132E-06
 -1      1980-3.58017E-04-1.16532E-03 2.55658E-05
 -1      1981-3.70166E-04-1.12132E-03 3.77773E-05
 -1      1982-8.00554E-04-8.68432E-04 1.53847E-04
 -1      1983-7.55883E-04-9.06174E-04 1.39890E-04
 -1      1984-2.63915E-04-8.81259E-04 1.13242E-04
 -1      1985-3.34240E-04-1.07089E-03 5.41795E-05
 -1      1986-2.91830E-04-1.16244E-03 9.37197E-05
 -1      1987-5.00915E-04-4.24154E-04 1.15772E-04
 -1      1988-2.67722E-04-8.15044E-04 9.30250E-05
 -1      1989-3.64165E-04-8.63650E-04 1.09665E-04
 -1      1990-2.71808E-04-7.68507E-04 6.39946E-05
 -1      1991-6.98173E-04-6.45714E-04 1.02156E-04
 -1      1992-7.08800E-04-9.07771E-04 1.37809E-04
 -1      1993-4.29485E-04-3.73711E-04 1.02024E-04
 -1      1994-2.58069E-04-1.36594E-03 1.25352E-04
 -1      1995-3.45996E-04-1.22049E-03 2.08493E-05
 -1      1996-3.05940E-04-2.82053E-04 6.77587E-05
 -1      1997-2.80800E-04-1.34944E-03 5.06809E-05
 -1      1998-2.77471E-04-1.19827E-03 1.25630E-04
 -1      1999-3.05348E-04-2.90268E-04 7.81163E-05
 -1      2000-3.34868E-04-4.11182E-04 6.86448E-05
 -1      2001-2.89026E-04-1.04432E-03 1.31315E-04
 -1      2002-2.36218E-04-2.44040E-04 6.48026E-05
 -1      2003-3.63294E-04-1.16922E-03 5.43278E-05
 -1      2004-3.43277E-04-1.12530E-03 7.83022E-05
 -1      2005-5.14265E-04-9.22647E-04 9.53347E-05
 -1      2006-7.61294E-04-8.82112E-04 1.51529E-04
 -1      2007-7.14600E-04-9.86320E-04 1.15958E-04
 -1      2008-7.34760E-04-1.00410E-03 1.69629E-04
 -1      2009-5.12298E-04-9.67625E-04 1.17169E-04
 -1      2010-5.24836E-04-1.02422E-03 1.05342E-04
 -1      2011-4.99060E-06-2.49017E-05 7.34471E-06
 -1      2012-1.28796E-04-1.67708E-04 4.39370E-05
 -1      2013-3.22886E-04-1.26587E-03 9.79516E-05
 -1      2014-1.05651E-05-5.86513E-05 2.09987E-05
 -1      2015 2.47664E-06-2.23020E-05-2.17383E-07
 -1      2016-2.85166E-04-1.12189E-03 1.26958E-04
 -1      2017-5.51672E-06-2.35063E-05 1.25920E-06
 -1      2018-3.65894E-04-9.61928E-04 9.60560E-05
 -1      2019-1.34323E-05-5.20778E-05 9.87847E-06
 -1      2020 1.96766E-06-1.80987E-05 2.48047E-06
 -1      2021-4.79075E-04-1.19877E-03 1.19325E-04
 -1      2022-6.99674E-04-1.00937E-03 1.59096E-04
 -1      2023-1.01978E-06-2.83007E-05 1.41430E-05
 -1      2024-7.26718E-04-1.01482E-03 1.50330E-04
 -1      2025-4.00466E-07-1.27584E-05 8.86787E-06
 -1      2026-9.05973E-06-1.74672E-05 1.09589E-05
 -1      2027-1.57523E-04-2.71165E-04 5.45203E-05
 -1      2028-8.11054E-04-8.30647E-04 1.82552E-04
 -1      2029-4.22161E-05-9.99321E-05 2.51499E-05
 -1      2030-1.63978E-05-3.72113E-05 1.43374E-05
 -1      2031-7.61881E-04-6.74134E-04 1.72297E-04
 -1      2032-4.37577E-06-1.50652E-05 9.42754E-06
 -1      2033-6.74447E-04-5.49444E-04 1.07241E-04
 -1      2034-3.34037E-04-4.22477E-04 8.45474E-05
 -1      2035-7.53549E-04-6.63329E-04 1.52802E-04
 -1      2036-7.03024E-04-6.67369E-04 1.44046E-04
 -1      2037-7.97999E-04-8.94236E-04 1.76222E-04
 -1      2038-2.65518E-04-3.65882E-04 6.80932E-05
 -1      2039-4.58164E-04-5.05581E-04 1.01656E-04
 -1      2040-7.92904E-04-8.98079E-04 1.62156E-04
 -1      2041-5.16768E-04-5.59640E-04 1.14214E-04
 -1      2042-6.44259E-04-6.27387E-04 1.33941E-04
 -1      2043-7.10727E-04-6.04497E-04 1.44445E-04
 -1      2044-8.07655E-06-1.43128E-05-5.84669E-06
 -1      2045-7.87677E-04-7.26170E-04 1.71984E-04
 -1      2046-6.15709E-04-4.91414E-04 9.71469E-05
 -1      2047-3.30825E-04-1.27265E-03 1.08245E-04
 -1      2048-7.69831E-06-1.48778E-05-8.37502E-06
 -1      2049-2.59687E-04-1.34510E-03 1.09978E-04
 -1      2050-7.71588E-04-9.53626E-04 1.38624E-04
 -1      2051-2.91162E-04-1.36258E-03 3.26051E-05
 -1      2052 7.42132E-07-9.14345E-06-6.63991E-06
 -1      2053-4.10716E-05-9.09050E-05-1.34273E-05
 -1      2054-2.70772E-04-1.33853E-03 7.08747E-05
 -1      2055-3.93217E-06-1.25855E-05-8.75256E-06
 -1      2056-2.65149E-04-3.40139E-04 2.81588E-05
 -1      2057-3.13161E-04-1.27291E-03 4.47906E-05
 -1      2058-3.97593E-04-1.08141E-03 6.57701E-05
 -1      2059-3.34327E-04-3.91932E-04 4.17011E-05
 -1      2060-7.29198E-04-1.03349E-03 1.15469E-04
 -1      2061-3.34842E-04-4.00194E-04 5.29455E-05
 -1      2062-4.58570E-04-4.77740E-04 6.56424E-05
 -1      2063-4.90168E-04-1.24902E-03 6.78969E-05
 -1      2064-3.61251E-04-1.32307E-03 3.49790E-05
 -1      2065-6.45376E-04-6.04106E-04 1.01597E-04
 -1      2066-3.09012E-04-1.42465E-03 2.90091E-06
 -1      2067-5.30052E-04-5.25321E-04 7.94117E-05
 -1      2068-6.65388E-04-6.22401E-04 9.56058E-05
 -1      2069-8.27453E-04-7.87047E-04 1.47254E-04
 -1      2070-8.16704E-04-7.58062E-04 1.35536E-04
 -1      2071-8.40001E-04-8.23021E-04 1.37945E-04
 -1      2072-7.82436E-04-7.22805E-04 1.38008E-04
 -1      2073-8.26912E-04-8.57806E-04 1.40797E-04
 -1      2074-7.39700E-04-6.83570E-04 1.29672E-04
 -1      2075-7.85252E-04-7.18920E-04 1.29048E-04
 -1      2076-7.64452E-04-9.19200E-04 1.31128E-04
 -1      2077-6.60800E-04-5.49054E-04 1.60188E-04
 -1      2078-2.88082E-04-9.52325E-04 9.72916E-05
 -1      2079-2.09038E-04-3.11876E-04 3.18014E-05
 -3
    1PSTEP                         2           1           1          
  100CL  101 1.000000000        2060                     0    1           1
 -4  STRESS      6    1
 -5  SXX         1    4    1    1
 -5  SYY         1    4    2    2
 -5  SZZ         1    4    3    3
 -5  SXY         1    4    1    2
 -5  SYZ         1    4    2    3
 -5  SZX         1    4    3    1
 -1         3-6.84889E+00 9.10329E+01 6.47558E+00 2.01482E+01 1.36983E+01-1.62678E+00
 -1         4 7.97827E+00 9.65332E+01-7.92012E+00 1.25976E+01-2.10360E+01 2.36703E+00
 -1         6 6.49409E+00 8.27363E+01-4.49939E+00-6.71907E+00 9.13774E+00 9.00558E+00
 -1         8-6.80720E+00 8.76817E+01 6.80971E+00-2.14299E+01-1.43691E+01-2.41039E+00
 -1        12 1.44569E+01 5.06115E+01 1.75473E+01 5.57902E+00 8.44060E+00 3.31106E-01
 -1        14 1.86786E+00 1.20055E+01-9.25989E-02 1.33312E+00-4.25721E-01 1.25177E+00
 -1        18 9.28784E+00 3.07592E+01 1.20141E+01-4.47300E+00-6.06408E+00 5.92887E-01
 -1        22 2.00564E+01 6.01654E+01 1.77824E+01 8.17340E+00-8.68442E+00-1.44028E+00
 -1        28-1.03248E+01 5.58036E+01-6.05642E+00 5.70926E+00 4.96043E+00-2.97316E+00
 -1        29-5.20657E+00 6.55428E+01-6.70610E+00 1.02676E+01 2.55528E+00 2.50278E-01
 -1        30-5.98038E+00 5.31324E+01-1.02407E+01 4.31983E+00 2.48783E-01-1.96403E+00
 -1        31-5.53848E+00 6.64451E+01-6.08580E+00 1.05981E+01 3.29194E+00-1.36906E+00
 -1        32-7.61525E+00 5.69103E+01-6.58575E+00 7.74447E+00 3.71553E+00-2.55961E+00
 -1        33-7.63578E+00 5.51963E+01-7.83689E+00 5.99633E+00 2.62684E+00-2.10700E+00
 -1        34-5.95086E+00 6.45011E+01-6.70122E+00 5.27347E+00-7.11170E+00 1.05719E+00
 -1        35 6.59598E+00 8.06624E+01-5.81260E+00-1.13614E+01 1.13763E+01 1.38544E+01
 -1        36 1.05840E+01 6.00390E+01-7.17526E+00-7.86050E+00 6.95964E+00 6.28518E+00
 -1        37 6.65537E+00 5.79534E+01-9.86443E+00-5.73263E+00 6.93427E+00 4.54701E+00
 -1        38 1.94124E+00 5.69502E+01-8.27848E+00-4.98650E+00 6.22133E+00 1.76510E+00
 -1        39-4.77650E+00 6.18792E+01-7.53886E+00 2.80093E+00 4.89877E+00-3.14117E-01
 -1        40-1.20408E+01 5.30665E+01-4.15127E+00-1.00443E+01-7.41209E+00-4.07374E+00
 -1        41-3.07051E+00 5.47126E+01-5.05528E+00-1.30716E+01-9.81462E+00-3.53336E+00
 -1        42-6.59070E+00 2.10012E+01-1.12694E+01-1.71730E+01-2.49932E+01-9.90050E+00
 -1        43-5.11482E+00-1.21161E+02-3.44650E+01 3.26330E+01-7.98484E+01-2.21755E+01
 -1        44 2.49884E+01-4.83391E+02-1.78056E+02 2.48326E+02 8.56231E+01-2.75899E+01
 -1        45 9.13252E+01-4.84457E-01-3.61130E+01 5.74878E+01 6.16884E+01 2.79023E+01
 -1        46 4.72603E+00 6.85445E+01 1.38622E+01-1.03269E+01 1.72329E+01 2.40816E+01
 -1        47-2.94605E+00 6.25829E+01-1.35581E+01 5.51192E+00-1.01658E+01 2.44092E+00
 -1        48-5.41676E+00 5.58637E+01-9.49970E+00-6.22293E-01-6.19718E+00 3.68385E-01
 -1        49-5.17771E+00 4.96158E+01-8.09951E+00-2.58873E+00-3.10846E+00-2.06842E+00
 -1        50-1.66998E+00 5.91993E+01-5.39378E+00-3.17262E+00-5.51513E+00-4.05754E+00
 -1        51-2.85174E+00 7.29442E+01-3.68391E+00-8.68322E+00-8.47370E+00-2.80819E+00
 -1        52 4.46699E+00 8.24473E+01 4.14719E+00-1.07392E+01-6.16081E+00-8.49918E-01
 -1        53 2.62502E+00 5.03377E+01-9.72309E-01-3.55689E+00-4.98013E+00 9.36097E-02
 -1        54 1.84422E+00 4.15171E+01-8.53263E-01-1.68013E+00-4.50612E+00 5.05481E-01
 -1        55 3.82176E-01 3.08767E+01-1.73616E-01-7.80107E-01-3.70048E+00 5.40312E-01
 -1        56-5.08419E-01 2.40062E+01-4.72609E-01 1.95003E-01-2.65499E+00 4.15646E-01
 -1        57 6.87039E-02 2.24412E+01-1.81989E-02 6.82849E-01-1.64536E+00 3.52317E-01
 -1        58-1.96884E-01 1.87004E+01-8.46714E-01 8.24353E-01-9.85017E-01-1.56500E-01
 -1        59-2.59165E-01 1.96828E+01-6.71825E-01 7.20656E-01-1.07123E+00 1.43288E-04
 -1        60-5.16586E-01 1.91666E+01-2.99974E-01 1.06074E+00-6.43312E-01 4.31274E-01
 -1        61 4.23025E-02 1.67882E+01-7.85993E-01 9.77242E-01-5.05730E-01 3.62961E-01
 -1        62 3.05280E-01 1.96164E+01-5.01767E-01 1.17800E+00-2.29117E-01 5.95585E-01
 -1        63-3.05149E-01 1.89295E+01-7.36915E-01 8.19642E-01-5.58790E-01 1.34248E-01
 -1        64-2.74910E-02 2.04428E+01-4.28011E-01 7.56428E-01-4.17347E-01-6.27243E-02
 -1        65-5.70725E-02 2.06161E+01-5.12850E-01 9.68692E-01-4.15826E-01 3.19405E-01
 -1        66-4.12942E-01 2.11427E+01-5.83588E-01 7.71177E-01-4.19886E-01 1.52614E-01
 -1        67-1.71012E-01 2.25677E+01-5.16777E-01 9.56840E-01-2.17234E-01 2.28306E-01
 -1        68-1.26640E-01 2.27441E+01-6.93379E-01 8.39768E-01-1.84679E-01-1.76572E-03
 -1        69-2.09501E-02 2.41307E+01-3.58662E-01 8.52137E-01-5.03389E-01-2.42153E-02
 -1        70-8.81064E-02 2.40265E+01-4.46894E-01 1.02198E+00-4.24066E-01 2.58725E-01
 -1        71-2.73814E-01 2.52895E+01-2.44079E-01 7.96681E-01-1.82766E-01 1.01937E-02
 -1        72-4.05390E-01 2.55984E+01-3.58576E-01 9.98429E-01-1.92707E-01 9.62985E-02
 -1        73-4.03363E-01 2.65784E+01-1.06419E-01 7.34244E-01-3.02766E-01 3.93617E-02
 -1        74-1.45426E-01 2.71786E+01-2.02349E-01 5.37877E-01-3.27500E-01 1.16566E-01
 -1        75-1.64674E-02 2.79898E+01-1.24038E-01 5.92070E-01-2.15967E-01 6.32435E-03
 -1        76 7.40368E-02 2.86022E+01-1.21779E-02 6.54706E-01-2.32163E-01 3.86726E-02
 -1        77-9.28663E-02 2.95323E+01-4.59404E-02 6.85527E-01-1.82350E-01 5.10128E-02
 -1        78-1.22488E-03 2.99511E+01-4.06673E-02 7.18006E-01-2.10585E-01-3.01643E-02
 -1        79 7.33085E-02 3.05943E+01-4.81668E-02 7.78327E-01-2.76669E-01-2.09427E-02
 -1        80 4.82015E-02 3.14168E+01 3.74937E-02 7.65539E-01-3.64459E-01-2.99102E-03
 -1        81 7.05936E-02 3.21178E+01 4.58897E-02 8.30352E-01-3.54261E-01-5.83371E-02
 -1        82-4.99117E-02 3.26571E+01 1.27461E-01 8.13555E-01-3.11783E-01 2.17857E-02
 -1        83 3.80520E-02 3.35129E+01 1.55300E-01 8.30277E-01-3.00928E-01 4.80908E-03
 -1        84 2.24747E-01 3.41397E+01 1.83383E-01 1.02818E+00-2.60361E-01-1.61444E-01
 -1        85 1.32752E-01 3.45474E+01 1.52994E-01 9.02123E-01-3.18654E-01-9.50159E-03
 -1        86-9.14453E-02 3.54278E+01 1.97504E-01 9.01349E-01-4.82830E-01-7.51147E-02
 -1        87-2.83270E-01 3.56568E+01 1.91310E-01 8.00972E-01-5.25995E-01 7.10208E-02
 -1        88-4.14721E-01 3.62322E+01 1.19039E-01 5.59571E-01-2.44066E-01 6.15516E-02
 -1        89-9.42941E-03 3.62518E+01 3.00001E-01 4.33744E-01-2.40148E-01-7.20937E-02
 -1        90 1.04557E-01 3.68334E+01 2.37623E-01 3.19954E-01-3.92757E-01-2.19234E-01
 -1        91-5.56301E-02 3.67127E+01 2.21033E-01 2.01152E-01-3.65282E-01-3.14714E-02
 -1        92-4.84076E-01 3.66024E+01 4.34294E-01 4.84065E-02-2.56453E-01 2.97430E-02
 -1        93-8.29424E-01 3.80981E+01 1.46872E+00-2.06435E-02 4.60590E-01-1.17851E-01
 -1        94 3.66676E+00 4.53671E+01 8.58093E+00 2.76741E+00 4.70739E+00-1.02811E+00
 -1        95 6.05294E+00 2.21748E+01 6.70969E+00-1.14560E-01 3.55350E+00 7.15068E-01
 -1        96 9.00175E+00 2.70553E+01 9.05995E+00-1.77844E+00 4.74127E+00-6.98465E-01
 -1        97 1.41062E+01 3.62373E+01 1.51030E+01 1.08372E+00 7.54668E+00-2.67545E-01
 -1        98 1.30412E+01 3.81687E+01 1.43294E+01 2.14463E+00 7.28631E+00-8.72987E-01
 -1        99 1.85123E+01 4.63266E+01 1.86624E+01 5.91124E+00 8.27977E+00 6.78060E-01
 -1       100 3.85849E+00 8.54450E+01 3.47900E+00 3.60017E+00-1.15038E+01 1.28436E+00
 -1       101 9.48377E-01 6.69295E+01 3.58895E+00 1.53093E+00-3.40528E+00 5.56428E-02
 -1       102 1.12962E+00 5.98928E+01 1.78945E+00 2.42297E-01-2.00681E+00 2.13651E-01
 -1       103 1.08286E+00 5.90891E+01 8.76168E-01 9.58933E-02-1.14727E+00 5.00332E-01
 -1       104-6.76345E-02 5.84782E+01 1.20429E+00-2.38321E-01-4.35959E-01 3.32003E-01
 -1       105 1.42543E-01 5.78742E+01 8.44833E-01 3.62173E-01-5.24915E-01 7.01607E-01
 -1       106 6.04676E-01 5.59201E+01 2.75444E-01 2.98613E-01-4.50628E-01 1.89472E-01
 -1       107 2.96857E-01 5.40300E+01 5.33162E-01 3.61410E-01-6.24348E-01-3.62611E-02
 -1       108 9.78854E-02 5.44092E+01 7.08617E-01 3.28231E-01-5.28813E-01-7.02230E-02
 -1       109-4.36368E-01 5.33997E+01 6.61583E-01 3.19775E-01 2.48607E-01-5.52699E-02
 -1       110 2.99778E-02 5.27013E+01 4.33112E-01 9.07253E-01 3.63900E-02 3.28196E-01
 -1       111 2.72107E-01 5.12981E+01 4.69180E-01 5.18991E-01 2.00082E-01-2.93124E-02
 -1       112 2.64893E-01 4.89951E+01 5.38245E-01 7.21464E-01 2.64580E-01-2.14430E-02
 -1       113 5.28596E-01 4.87411E+01 2.00469E-01 8.49521E-01-1.27620E-01 3.80300E-01
 -1       114 6.17664E-01 4.69123E+01-2.22389E-02 9.54449E-01-3.28887E-01 5.80153E-02
 -1       115 6.03812E-01 4.61441E+01 6.75311E-01 8.71459E-01-2.45499E-01-9.14028E-02
 -1       116 9.47537E-02 4.57158E+01 3.05347E-01 6.26737E-01-4.20916E-01 7.64660E-02
 -1       117 8.01496E-02 4.32299E+01 1.72564E-01 8.50650E-01-2.59007E-01 7.12176E-02
 -1       118 1.96596E-01 4.33639E+01 4.10705E-01 8.64798E-01-3.54573E-01-5.38331E-02
 -1       119 1.46050E-01 4.16696E+01 2.65863E-01 5.79385E-01-1.24731E-01 1.22089E-01
 -1       120 3.43214E-01 4.01608E+01 3.63949E-01 6.16461E-01-2.67106E-01 3.24249E-02
 -1       121 2.44280E-01 3.93284E+01 2.63377E-01 4.36343E-01 6.98752E-02 7.21671E-02
 -1       122 2.01505E-01 3.76050E+01 1.75133E-01 4.82924E-01 7.95905E-02 1.56226E-01
 -1       123 1.52506E-01 3.66153E+01 6.91374E-02 5.58589E-01-9.06560E-02 4.98606E-02
 -1       124-6.67881E-02 3.54812E+01-8.27384E-03 5.61126E-01-8.25479E-02-1.85080E-02
 -1       125 6.71527E-02 3.40808E+01 8.19127E-02 5.93830E-01-1.79011E-02 5.73813E-03
 -1       126 2.91820E-02 3.29163E+01 7.01119E-02 6.72423E-01-1.08547E-01 5.01874E-03
 -1       127-5.82767E-02 3.16589E+01 1.66601E-02 6.57181E-01-1.80812E-02-1.02130E-02
 -1       128-8.41417E-03 3.08304E+01-3.46893E-02 6.14361E-01-1.43191E-02-2.93157E-03
 -1       129 8.43246E-03 2.93958E+01-5.18132E-02 6.50821E-01 1.57425E-02-1.93959E-02
 -1       130 8.36108E-02 2.84562E+01-7.60739E-03 6.97400E-01-1.12258E-02 2.02244E-02
 -1       131 1.32659E-01 2.69430E+01-4.74965E-02 6.92594E-01-5.00141E-02 5.95058E-02
 -1       132-1.35522E-01 2.56040E+01-1.32248E-01 6.24497E-01-1.90674E-01-3.51682E-02
 -1       133-1.44830E-01 2.47462E+01-8.74486E-02 5.95592E-01-6.84756E-02-6.15184E-02
 -1       134-8.13163E-02 2.28470E+01-2.17783E-01 6.82726E-01-5.55069E-02-1.47510E-01
 -1       135 3.26905E-02 2.25825E+01-2.33236E-01 6.37075E-01-2.55863E-01-4.77944E-02
 -1       136 1.34142E-02 2.07386E+01-1.26027E-01 4.88166E-01-4.15337E-01-6.88576E-02
 -1       137-6.39990E-01 1.99812E+01-4.12096E-01 4.19160E-01-9.60029E-02 3.16053E-02
 -1       138-5.11358E-01 1.73931E+01-6.05480E-01 5.41745E-01 1.46337E-02-1.23134E-02
 -1       139 3.26879E-01 1.48554E+01-7.29703E-01 7.77686E-01-4.63896E-01-7.46654E-02
 -1       140-3.22659E-01 1.49665E+01-5.28452E-01 7.29276E-01-4.69065E-01-1.04168E-01
 -1       141-5.94869E-01 1.30573E+01 1.01477E-01 3.13450E-01-3.67597E-01-3.37510E-01
 -1       142 5.50562E-01 8.08792E+00-9.01254E-01 7.54623E-01-3.93437E-01-3.06860E-01
 -1       143 8.22808E+00 2.57769E+01 8.40083E+00-4.14783E+00-4.05733E+00 2.29427E-01
 -1       144 8.35366E+00 2.07126E+01 7.13290E+00-3.61368E+00-1.94339E+00-2.17200E-01
 -1       145 8.19081E+00 1.91119E+01 8.19081E+00-3.36643E+00-1.04656E+00 0.00000E+00
 -1       146 6.72375E+00 1.71302E+01 6.32260E+00-2.98338E+00-1.19257E-01 8.17723E-03
 -1       147 6.76267E+00 1.65700E+01 5.97219E+00-3.16980E+00 1.04307E+00-2.65228E-02
 -1       148 7.20991E+00 1.68231E+01 7.20991E+00-3.11510E+00 1.81118E+00 0.00000E+00
 -1       149 6.76799E+00 1.80335E+01 4.52643E+00-2.98347E+00 1.21259E-01 5.20065E-01
 -1       150 4.30358E+00 8.79999E+01 4.08606E+00 8.73011E+00 5.49309E+00-6.78739E-01
 -1       151 3.67438E+00 6.64779E+01 9.90403E-01 5.20185E-01 3.70434E+00-6.43790E-01
 -1       152 1.54007E+00 5.95929E+01 9.22303E-01-1.08727E+00 2.86311E+00-5.58616E-01
 -1       153-3.48224E-01 5.86974E+01 1.50543E+00 8.05842E-02 2.25308E+00-2.42144E-01
 -1       154 1.50304E-01 5.29561E+01 1.20118E+00 6.03763E-01 1.78455E+00 1.83183E-01
 -1       155 3.85586E-01 5.10813E+01 1.24965E+00 1.12966E+00 1.04774E+00-2.44168E-01
 -1       156 1.56658E-02 5.00262E+01 1.07023E+00 1.14561E+00 3.88044E-01 4.69903E-01
 -1       157 6.84370E-02 4.53435E+01 7.90564E-01 9.35750E-01-1.01593E-01 1.63485E-01
 -1       158 2.64848E-01 4.40312E+01 5.15151E-01 1.14000E+00-1.32068E-01-2.72268E-01
 -1       159-2.47912E-02 4.59935E+01 8.02035E-01 9.58298E-01-3.37320E-01-2.37097E-01
 -1       160-5.73130E-01 4.26789E+01 3.17742E-01 1.05752E+00-8.32098E-02-3.65865E-01
 -1       161 1.12091E-01 4.30938E+01 1.00738E+00 9.49791E-01-3.49021E-01-1.19460E-01
 -1       162 4.68298E-02 4.15785E+01 5.82303E-01 7.75328E-01-5.37899E-01-1.73182E-02
 -1       163 2.58011E-02 4.14020E+01 5.09802E-01 9.86439E-01-4.85966E-01-3.34059E-01
 -1       164 4.10955E-01 4.09186E+01 5.71100E-01 8.25814E-01-4.53510E-01-1.44291E-01
 -1       165 1.68289E-01 3.94571E+01 5.08703E-01 1.01521E+00-2.44686E-01-2.21440E-01
 -1       166 1.31196E-01 3.95801E+01 7.79127E-01 8.21314E-01-2.21768E-01-1.55016E-02
 -1       167 5.17920E-02 3.78315E+01 3.37554E-01 8.26417E-01-4.71851E-01 8.03326E-03
 -1       168 9.45721E-02 3.77888E+01 3.95783E-01 1.05915E+00-4.29799E-01-2.31267E-01
 -1       169 1.40650E-01 3.68722E+01 2.49219E-01 9.12908E-01-2.31324E-01 3.66385E-02
 -1       170 3.30514E-01 3.64707E+01 3.89707E-01 1.07267E+00-2.10029E-01-9.63675E-02
 -1       171 4.20281E-01 3.55020E+01 1.27755E-01 7.79830E-01-3.27955E-01-5.61356E-02
 -1       172 1.46847E-01 3.48469E+01 1.95862E-01 5.92121E-01-3.50534E-01-1.31829E-01
 -1       173 2.00391E-02 3.40820E+01 1.02243E-01 6.38470E-01-2.45565E-01-9.59162E-03
 -1       174-8.51738E-02 3.35021E+01-2.73434E-03 6.53119E-01-2.38975E-01-1.88523E-02
 -1       175 7.96871E-02 3.25794E+01 3.84180E-02 6.98561E-01-1.85965E-01-4.64693E-02
 -1       176-5.84802E-02 3.21392E+01 3.22596E-02 7.49875E-01-1.97567E-01 4.89819E-02
 -1       177-8.53441E-02 3.14578E+01 4.69215E-02 7.71272E-01-2.71777E-01 3.17435E-02
 -1       178-5.32974E-02 3.06453E+01-3.63608E-02 7.64297E-01-3.68425E-01 5.61444E-03
 -1       179-7.23163E-02 2.99714E+01-4.49778E-02 8.45108E-01-3.55451E-01 4.78266E-02
 -1       180 7.06598E-02 2.94380E+01-1.24722E-01 8.24231E-01-3.09752E-01-2.72215E-02
 -1       181 1.96982E-02 2.85660E+01-1.46193E-01 8.10526E-01-2.75562E-01-1.74442E-02
 -1       182-2.14660E-01 2.79201E+01-1.55490E-01 9.27678E-01-2.32847E-01 1.43802E-01
 -1       183-1.31149E-01 2.75391E+01-1.48692E-01 7.37085E-01-2.10293E-01 3.34735E-02
 -1       184 3.64560E-02 2.62716E+01-2.69319E-01 7.82218E-01-3.16804E-01 7.19496E-02
 -1       185 1.83725E-01 2.58477E+01-1.96149E-01 7.14316E-01-3.00922E-01-3.44370E-02
 -1       186 3.16010E-01 2.48800E+01-1.62431E-01 5.45202E-01-1.63757E-02-3.32030E-02
 -1       187-2.05082E-01 2.41674E+01-3.47628E-01 6.34216E-01 1.03501E-01 1.72003E-01
 -1       188-3.06126E-01 2.29442E+01-3.43760E-01 5.95432E-01-8.09682E-02 3.81687E-01
 -1       189-5.40891E-01 2.20011E+01-3.26934E-01 8.08551E-01-1.91740E-01 2.27726E-01
 -1       190 8.86236E-02 2.14791E+01-1.68155E-01 7.34963E-01-5.98799E-01 9.52296E-02
 -1       191 1.19946E+00 1.95426E+01 1.91875E-01-8.95107E-03-1.01406E+00-1.07260E-01
 -1       192 1.45373E+00 2.29430E+01 3.61999E+00-2.21282E+00-2.17739E+00 1.81749E-02
 -1       193 1.92190E+01 5.56747E+01 1.93263E+01 6.08122E+00-9.12426E+00 5.81348E-01
 -1       194 1.51195E+01 4.42424E+01 1.56092E+01 1.33478E+00-7.97458E+00 6.42793E-01
 -1       195 1.59042E+01 3.98490E+01 1.67260E+01-1.10079E+00-8.16281E+00 3.62073E-01
 -1       196 1.18413E+01 3.29106E+01 1.28125E+01-2.71586E+00-6.64058E+00 6.21341E-02
 -1       197 1.38056E+01 3.22131E+01 1.38056E+01-3.40758E+00-6.60756E+00 0.00000E+00
 -1       198 3.21071E+00 6.18778E+01-3.78243E+00-7.38081E+00 1.01795E+01 4.50345E+00
 -1       199 4.99435E+00 3.07547E+01-2.47886E+00 1.12559E-01 1.36929E+01-7.22698E-01
 -1       200 1.00267E+00 2.17450E+01 1.17604E+00 1.96829E+00 8.59071E+00-1.02252E+00
 -1       201 4.12321E-01 1.04615E+01 1.46657E+00 1.97863E+00 5.38558E+00 4.00911E-01
 -1       202 1.51616E-01 5.11042E+00 2.96186E-01 1.13890E+00 3.31067E+00-8.84352E-02
 -1       203-4.18597E-01 4.92081E+00 5.55294E-01 1.59309E+00 1.69467E+00-6.40454E-01
 -1       204-1.00721E+00 5.30835E+00 5.92295E-02 8.62475E-01 2.85941E-01-1.79024E-01
 -1       205-4.56161E-01 6.86148E+00-2.93578E-01 7.22700E-01-2.25735E-01 4.68180E-02
 -1       206-2.21015E-01 6.53901E+00-5.24136E-01 6.17837E-01-5.29868E-01 2.45357E-02
 -1       207 3.60082E-01 7.86546E+00-6.74757E-01 4.90808E-01 1.74759E-01 1.04701E-01
 -1       208-1.37997E-01 8.77586E+00-4.68737E-01 9.68723E-01 3.25380E-02-3.32806E-01
 -1       209-3.26622E-01 9.92332E+00-5.08314E-01 4.84605E-01 1.82701E-01 4.89776E-02
 -1       210-2.09494E-01 1.26610E+01-4.17974E-01 5.60672E-01 1.30240E-01 1.04065E-01
 -1       211-5.35011E-01 1.32085E+01-1.85318E-01 5.70019E-01-3.13369E-01-3.44160E-01
 -1       212-5.97607E-01 1.51376E+01-4.18042E-02 6.64628E-01-5.26972E-01-2.44994E-02
 -1       213-5.91764E-01 1.60270E+01-6.75156E-01 6.32948E-01-2.53094E-01 1.04252E-01
 -1       214-2.68932E-02 1.62516E+01-2.96175E-01 4.52873E-01-4.65041E-01-1.30888E-01
 -1       215-2.84536E-02 1.86897E+01-1.98614E-01 7.50234E-01-3.97206E-01-5.43445E-02
 -1       216-2.17113E-01 1.90708E+01-3.40149E-01 7.06067E-01-3.06177E-01 6.49868E-02
 -1       217-1.51236E-01 2.04146E+01-2.74702E-01 5.39596E-01-1.32399E-01-1.43489E-01
 -1       218-3.29623E-01 2.18816E+01-3.72548E-01 5.97732E-01-2.70241E-01-2.44323E-02
 -1       219-2.24530E-01 2.27535E+01-2.54337E-01 4.33476E-01 6.68779E-02-6.39831E-02
 -1       220-1.60932E-01 2.44613E+01-1.79944E-01 5.10166E-01 7.06026E-02-1.50353E-01
 -1       221-1.17933E-01 2.54783E+01-7.78401E-02 6.10596E-01-8.72447E-02-5.12438E-02
 -1       222 4.02371E-02 2.65586E+01-9.05725E-04 5.98352E-01-7.21146E-02 9.06650E-03
 -1       223-8.14483E-02 2.79817E+01-7.95596E-02 6.11759E-01-1.32216E-02-1.48019E-02
 -1       224-1.25188E-02 2.91617E+01-6.08485E-02 7.03729E-01-1.09692E-01-3.94887E-03
 -1       225 6.50136E-02 3.04414E+01-3.52504E-02 7.25744E-01-2.93329E-02 2.26533E-02
 -1       226 2.92100E-02 3.13764E+01 3.39728E-02 6.98888E-01 1.61557E-02 8.10311E-03
 -1       227-2.58107E-02 3.25448E+01 2.41535E-02 6.86165E-01 4.40058E-02 1.30600E-02
 -1       228-8.68286E-02 3.36345E+01 8.25403E-03 6.92175E-01-7.49518E-03-2.61102E-02
 -1       229-1.56189E-01 3.51672E+01 1.29687E-02 6.91606E-01-4.08823E-02-8.52725E-02
 -1       230 1.20582E-01 3.63098E+01 7.86022E-02 6.17441E-01-9.38847E-02 9.49568E-03
 -1       231 1.34850E-01 3.70604E+01 8.12121E-02 6.13126E-01 1.08884E-02 4.50390E-02
 -1       232 5.85067E-02 3.88042E+01 1.34292E-01 7.10103E-01 1.06332E-01 1.59995E-01
 -1       233-6.94767E-02 3.88854E+01 1.58016E-01 6.18463E-01-9.77193E-03 3.71342E-02
 -1       234-1.64247E-01 4.02665E+01 2.21575E-02 5.13707E-01-1.53909E-01 2.33221E-02
 -1       235 3.21171E-01 4.09661E+01 2.73270E-01 4.79753E-01 8.14800E-02 1.04525E-01
 -1       236 1.03090E-01 4.20128E+01 3.42333E-01 3.47712E-01 2.80574E-01 6.57797E-03
 -1       237-6.77189E-01 4.27117E+01 3.94544E-01 3.03764E-01-1.00307E-02-1.92522E-01
 -1       238-9.73880E-02 4.23589E+01 2.48683E-01 2.99494E-01-1.76335E-01-1.11995E-01
 -1       239 8.50434E-01 4.34873E+01 6.85161E-01 3.31755E-01-9.46761E-01 2.92704E-01
 -1       240 8.76779E+00 5.26899E+01 5.28367E+00 3.44549E+00-5.09065E+00 8.41930E-01
 -1       241 1.72437E+01 4.99216E+01 1.81358E+01 6.94786E+00 6.88024E+00-3.18548E-01
 -1       242 1.28791E+01 4.51345E+01 1.46438E+01 6.43455E+00 3.09427E+00-5.79648E-01
 -1       243 1.70753E+01 4.62379E+01 1.80339E+01 7.41697E+00 3.63770E+00 2.87889E+00
 -1       244 2.21065E+01 5.28303E+01 2.08579E+01 9.84544E+00-8.71544E-02 7.07861E-02
 -1       245 2.24869E+01 5.34117E+01 2.15445E+01 1.01314E+01-2.60468E+00 8.04268E-02
 -1       246 2.31333E+01 5.39776E+01 2.31333E+01 1.03802E+01-4.04943E+00 0.00000E+00
 -1       247 2.19139E+01 5.51460E+01 2.10696E+01 9.44487E+00-7.02987E+00-7.11417E-01
 -1       248-4.40214E+00 4.69239E+01-7.64108E+00-9.97682E-02 2.93177E+00-7.26869E-01
 -1       249-1.57687E+00 3.97437E+01-7.97326E+00-2.97837E+00 4.08102E+00 8.84604E-01
 -1       250 2.90410E+00 3.83446E+01-7.05161E+00-4.13388E+00 3.59469E+00 3.54461E+00
 -1       251 1.05421E+01 3.44838E+01-7.21622E+00-4.53722E+00 5.00352E+00 8.64522E+00
 -1       252 1.66327E+01 3.87995E+01-2.31113E+00-3.84673E+00 6.24019E+00 1.36733E+01
 -1       253-3.33111E+00 4.31523E+01-9.78100E+00 7.49921E-01 1.65056E+00-5.05485E-01
 -1       254 1.21697E+00 3.38326E+01-1.11518E+01-3.31448E+00 7.17063E-02 1.32582E+00
 -1       255 5.74407E+00 3.06830E+01-1.31725E+01-2.14993E+00 2.25456E-01 2.75424E+00
 -1       256 1.54803E+01 2.66117E+01-1.34135E+01 2.57695E+00 6.63164E+00 6.13948E+00
 -1       257 3.67755E+01 3.19001E+01-2.07818E+01 5.95345E+00 9.64312E+00 7.85370E+00
 -1       258-1.36096E+00 3.67856E+01-1.36506E+01-2.20098E+00 1.87283E-02-1.65477E+00
 -1       259 5.79952E+00 3.49912E+01-1.06189E+01-2.26247E+00 9.75815E-01-6.09923E-02
 -1       260 8.77007E+00 2.82253E+01-1.18419E+01-1.79325E+00 2.14622E+00-3.64717E-01
 -1       261 1.89642E+01 2.34561E+01-1.68580E+01 7.96145E+00 2.69560E+00-1.96264E+00
 -1       262 9.64286E+00-1.12673E+02-4.64640E+01 6.56594E+01-2.46618E+00-9.16474E+00
 -1       263-2.22413E+00 3.96786E+01-1.14600E+01 1.43459E+00 1.04196E+00-2.30418E+00
 -1       264 2.00481E+00 2.91846E+01-1.44120E+01-2.76087E+00 6.05543E-01-4.46174E+00
 -1       265 4.22316E+00 3.01104E+01-9.45783E+00-4.45813E+00-2.79251E+00-5.94576E+00
 -1       266 6.58480E+00 2.88903E+01-8.94993E+00 1.76612E+00-9.13693E+00-6.90864E+00
 -1       267 2.07610E+01 7.78135E+00-1.13222E+01 4.24555E+00-2.47168E+01-7.24759E+00
 -1       268-4.07673E+00 3.45294E+01-1.29249E+01 5.85350E-01 5.22819E-01-3.88427E+00
 -1       269-2.02014E+00 3.20967E+01-1.11252E+01-3.14763E+00 8.15406E-01-6.74912E+00
 -1       270 6.61878E-03 3.27555E+01-1.02910E+01-2.66466E+00 5.43166E-01-7.68999E+00
 -1       271 1.26217E+00 3.22062E+01-7.84175E+00-2.04931E+00-2.86635E-01-1.10212E+01
 -1       272 2.09785E+00 2.37751E+01-8.08010E+00-3.19819E+00-1.24517E+01-8.20410E+00
 -1       273-5.02971E+00 4.22246E+01-9.24727E+00 1.82564E+00 1.62081E+00-1.78407E+00
 -1       274-7.43918E+00 3.33512E+01-1.23463E+01-1.19911E-01 8.39947E-01-4.32595E+00
 -1       275-5.44600E+00 3.28815E+01-7.87058E+00-2.20049E+00-6.20422E-02-6.14189E+00
 -1       276-5.62815E+00 3.15279E+01-7.28692E+00-3.61545E+00-2.46798E+00-9.48080E+00
 -1       277-2.54550E+00 3.98224E+01-4.82786E+00-4.65537E+00-3.84442E+00-4.26359E+00
 -1       278-6.59403E+00 4.30428E+01-7.54682E+00 7.10768E-01-3.06709E+00-1.13206E+00
 -1       279-7.85412E+00 4.00738E+01-7.53166E+00-1.82320E+00-3.17199E+00-2.58401E+00
 -1       280-6.97277E+00 4.10245E+01-5.61831E+00-2.44070E+00-1.87228E+00-3.94863E+00
 -1       281-6.06354E+00 4.12126E+01-5.49913E+00-2.32712E+00-2.11967E+00-4.52455E+00
 -1       282-4.07262E+00 4.42484E+01-3.26115E+00-3.30892E+00-3.00113E+00-2.76937E+00
 -1       283 2.06878E+00 5.42129E+01-1.08048E-01-5.11861E+00-5.00629E+00-4.24016E-01
 -1       284 1.03804E+00 4.82045E+01-5.48357E-01-4.76416E+00-3.31166E+00-9.31784E-01
 -1       285 1.00662E+00 5.19724E+01-1.06224E+00-3.47716E+00-2.82774E+00-4.31404E-01
 -1       286 2.06097E+00 5.43054E+01-8.08351E-01-1.34973E+00-2.89183E+00-3.80243E-01
 -1       287 4.42252E+00 6.62461E+01-3.51894E-01 3.71994E+00-6.41325E+00 3.07005E-01
 -1       288 3.32303E+00 5.17533E+01-9.02530E-01-2.87669E+00-4.47610E+00 1.18962E-01
 -1       289 2.72501E+00 4.92973E+01-8.02798E-02-4.64735E+00-3.76308E+00 4.29570E-01
 -1       290 2.23323E+00 4.92730E+01-4.84385E-01-3.51130E+00-1.72892E+00 2.64065E-01
 -1       291 3.19944E+00 5.12033E+01 1.49910E-01-1.51221E+00-2.93434E+00 6.87883E-01
 -1       292 1.64701E+00 6.16457E+01 2.15597E+00 1.59891E+00-3.31164E+00 2.37962E-01
 -1       293 1.69805E+00 4.22545E+01 2.08679E-01-2.38369E+00-3.63769E+00 6.68929E-01
 -1       294 1.84114E+00 4.34451E+01 3.42901E-01-3.06642E+00-3.05589E+00 1.60846E+00
 -1       295 2.04428E+00 4.52428E+01-8.20100E-02-2.43428E+00-3.05164E+00 1.48064E+00
 -1       296 2.36035E+00 5.02730E+01 9.54695E-01-1.42781E+00-2.22317E+00 1.43052E+00
 -1       297 1.48881E+00 5.50769E+01 6.07548E-01-1.35755E-01-1.76143E+00 7.81139E-01
 -1       298 6.04923E-01 3.52219E+01 7.90775E-01-1.10034E+00-2.23668E+00 7.66766E-01
 -1       299 1.59200E+00 4.04340E+01 4.79300E-01-1.20390E+00-2.10562E+00 1.73953E+00
 -1       300 1.96709E+00 4.62872E+01 9.11902E-02-1.58581E+00-1.56037E+00 1.67397E+00
 -1       301 8.78950E-01 4.90286E+01 3.06114E-01-7.60847E-01-1.71951E+00 1.47674E+00
 -1       302 7.73804E-01 5.50177E+01-2.19931E-01 5.37007E-01-1.43979E+00 1.11717E+00
 -1       303 1.85458E-01 2.86459E+01 1.25373E-01-2.27439E-01-2.16877E+00 3.13579E-01
 -1       304 7.23227E-01 3.51601E+01 2.08529E-01-4.66343E-01-1.95348E+00 1.10637E+00
 -1       305 4.33583E-01 4.14141E+01-9.88996E-02-5.24158E-01-1.58468E+00 1.19673E+00
 -1       306 5.55231E-01 4.64115E+01 4.75159E-01-4.15324E-01-1.23735E+00 1.16578E+00
 -1       307 1.94955E-01 5.45437E+01 5.11195E-01 5.75989E-02-8.97024E-01 4.90336E-01
 -1       308 4.14167E-01 2.48898E+01 3.98173E-01 4.22172E-01-1.66846E+00 2.94570E-01
 -1       309 6.92974E-01 3.23379E+01 3.20994E-01 3.13110E-01-1.28878E+00 7.14149E-01
 -1       310 5.28662E-01 3.93148E+01 2.51261E-01 8.79617E-01-8.59600E-01 1.03513E+00
 -1       311 2.49081E-01 4.49415E+01 4.24500E-01 4.14696E-01-7.01142E-01 8.20346E-01
 -1       312 3.01283E-01 5.27794E+01 3.90704E-01 3.62750E-01-1.23672E-01 6.81274E-01
 -1       313 1.82618E-01 2.51642E+01 5.49508E-01 4.10168E-01-8.63425E-01 3.89360E-01
 -1       314 6.58670E-01 3.16372E+01 5.04036E-02 5.59623E-01-1.03727E+00 8.64571E-01
 -1       315 1.07941E-01 3.69430E+01-2.02230E-01 1.53816E+00-6.31967E-01 9.34912E-01
 -1       316 1.64598E-01 4.44069E+01 2.08405E-01 5.57422E-01-6.19628E-01 1.14055E+00
 -1       317 2.21162E-01 5.00026E+01 1.16457E-01 9.02336E-01-1.72359E-01 1.06759E+00
 -1       318-1.55483E-01 2.40054E+01 2.26843E-01 7.30957E-01-5.63496E-01 6.30303E-01
 -1       319 5.33389E-02 3.02871E+01-7.42475E-02 1.31627E+00-7.25486E-01 1.06123E+00
 -1       320-1.59182E-01 3.63442E+01-1.21555E-01 1.26554E+00-9.48235E-01 1.21088E+00
 -1       321 3.30973E-01 4.31770E+01 3.76078E-01 9.42038E-01-4.64658E-01 1.15745E+00
 -1       322 2.91047E-01 4.94301E+01-6.10488E-02 8.83801E-01-2.90613E-01 6.81360E-01
 -1       323-3.51457E-01 2.33558E+01-2.24550E-01 1.07968E+00-3.63019E-01 1.17751E+00
 -1       324 2.49502E-01 2.98765E+01-2.13141E-02 1.36891E+00-3.18130E-01 1.07312E+00
 -1       325 2.61432E-01 3.78806E+01 3.01791E-01 1.34448E+00-4.63600E-01 1.31173E+00
 -1       326 1.42594E-01 4.27102E+01 2.20718E-01 1.26314E+00-3.09983E-01 8.48143E-01
 -1       327 7.63213E-02 4.98439E+01-2.28974E-01 1.47332E+00-2.81039E-01 6.31662E-01
 -1       328 1.87877E-01 2.20247E+01-3.37951E-02 1.15038E+00-4.99576E-01 4.55904E-01
 -1       329 1.58998E-01 2.94199E+01-1.52009E-01 1.32839E+00-2.31723E-01 5.10594E-01
 -1       330-2.67089E-01 3.64007E+01-1.37307E-03 1.36823E+00-6.76100E-02 6.37922E-01
 -1       331-7.00948E-02 4.18190E+01 2.52508E-01 1.18674E+00-8.00409E-02 3.65180E-01
 -1       332-1.03605E-01 4.93522E+01 6.37064E-02 7.73594E-01-7.36541E-03 1.54814E-01
 -1       333-8.16627E-02 2.38917E+01 7.24875E-02 1.24312E+00-2.06992E-01 5.07227E-01
 -1       334 1.81398E-02 2.89018E+01-2.44457E-01 1.58661E+00-1.27765E-01 6.10885E-01
 -1       335 1.24156E-01 3.45651E+01-2.90116E-01 1.54345E+00-1.71353E-02 6.36459E-01
 -1       336 7.68705E-02 4.13922E+01 2.68337E-01 1.65367E+00-6.63770E-02 5.98736E-01
 -1       337-6.50890E-03 4.77754E+01 3.25815E-03 7.08195E-01-1.18219E-01 3.42621E-01
 -1       338-2.18479E-01 2.28506E+01-3.63603E-01 7.96110E-01-3.45883E-01 7.15357E-01
 -1       339 7.81895E-02 2.94483E+01-3.36464E-01 1.45586E+00-3.14037E-01 6.00572E-01
 -1       340 1.18333E-01 3.57169E+01-2.12418E-01 1.23474E+00-1.81248E-01 6.42647E-01
 -1       341 5.70139E-02 4.12730E+01 1.81305E-01 1.43451E+00-3.49843E-02 6.92880E-01
 -1       342 2.78691E-01 4.68947E+01 1.07555E-01 3.75977E-01-1.41580E-02 4.51720E-01
 -1       343-1.37219E-01 2.52307E+01 3.18344E-01 9.75842E-01-2.69801E-01 4.52162E-01
 -1       344-1.00373E-01 3.00509E+01-3.97379E-01 1.73645E+00-4.12027E-01 6.26571E-01
 -1       345 6.37338E-01 3.50238E+01-3.53768E-01 1.42928E+00-1.73365E-01 7.61814E-01
 -1       346-4.90838E-02 4.02485E+01 3.80747E-02 1.66428E+00-9.57225E-02 5.91143E-01
 -1       347 3.56595E-02 4.51528E+01-1.64121E-01 6.42870E-01 1.61927E-02 4.48361E-01
 -1       348-2.04941E-01 2.41308E+01 8.11792E-02 6.47930E-01-6.38556E-02 3.82763E-01
 -1       349-1.19980E-01 2.98718E+01-2.25215E-01 1.99595E+00-1.68301E-01 8.24708E-01
 -1       350 3.67127E-01 3.39678E+01-1.55199E-01 1.29087E+00-1.71552E-01 7.02256E-01
 -1       351-4.74836E-02 3.97329E+01 9.96656E-02 1.60121E+00 1.80239E-02 6.60049E-01
 -1       352 1.22779E-02 4.53673E+01 1.52785E-01 1.08321E+00-9.48003E-02 9.72847E-01
 -1       353-6.06266E-02 2.48936E+01 1.48139E-01 6.56989E-01-1.17510E-02 1.68241E-01
 -1       354 4.50676E-02 2.96340E+01-1.24481E-01 1.64046E+00-2.32863E-01 3.13653E-01
 -1       355 3.94987E-01 3.49833E+01-1.31855E-01 1.57201E+00-3.62701E-01 4.66320E-01
 -1       356-2.60568E-01 3.98564E+01 7.52022E-02 1.31973E+00 1.17247E-01 5.02744E-01
 -1       357-2.41598E-03 4.39897E+01-2.69722E-01 1.10230E+00-3.01736E-02 2.70618E-01
 -1       358 9.67698E-03 2.49579E+01-5.09575E-02 7.48591E-01-1.04244E-01 1.79686E-01
 -1       359 2.01498E-02 3.00171E+01-1.80443E-01 1.76574E+00-1.98619E-01 5.33182E-01
 -1       360 1.23012E-01 3.42227E+01-6.03067E-02 1.63746E+00-3.48291E-01 5.62171E-01
 -1       361 1.24646E-01 3.83800E+01 1.15495E-01 1.34828E+00-3.87897E-02 4.52077E-01
 -1       362 1.98130E-01 4.27359E+01-1.51609E-01 1.47693E+00-4.40378E-02 2.30758E-01
 -1       363 2.01789E-01 2.58670E+01 1.31115E-01 5.27785E-01-1.23550E-01 2.20505E-01
 -1       364 9.55117E-02 2.99219E+01-1.52487E-01 1.61225E+00-2.36861E-01 5.32268E-01
 -1       365 1.08441E-01 3.41985E+01-7.38998E-03 1.60259E+00-2.01175E-01 5.15445E-01
 -1       366 1.28702E-01 3.78517E+01 2.36070E-01 1.35382E+00-1.18886E-01 4.72476E-01
 -1       367 5.62493E-02 4.23744E+01 9.07340E-02 1.64052E+00-2.34512E-02 4.43797E-01
 -1       368-8.90390E-03 2.68026E+01 1.05133E-01 8.94424E-01-2.69524E-01 3.26968E-01
 -1       369 3.71877E-02 3.02314E+01-7.71472E-02 1.69827E+00-2.88838E-01 5.29167E-01
 -1       370 3.27439E-02 3.37509E+01-7.36330E-02 1.61406E+00-3.90745E-01 5.00114E-01
 -1       371 1.34563E-01 3.72752E+01 1.46165E-01 1.41264E+00-8.16582E-02 4.54569E-01
 -1       372 2.00068E-02 4.08108E+01-1.63814E-01 1.18513E+00-7.05813E-03 2.85122E-01
 -1       373-3.80389E-02 2.70543E+01-6.24796E-02 7.93476E-01-2.26252E-01 3.31030E-01
 -1       374 4.27677E-02 3.03065E+01-1.36662E-01 1.87064E+00-2.35145E-01 6.31936E-01
 -1       375 3.05357E-01 3.38342E+01 8.34612E-02 1.61304E+00-2.52586E-01 3.84310E-01
 -1       376 2.27030E-02 3.68219E+01 1.25902E-01 1.52616E+00-7.65536E-02 2.81636E-01
 -1       377 1.50600E-01 4.07711E+01 4.34799E-02 1.50812E+00-2.83591E-02 3.30193E-01
 -1       378-3.56458E-02 2.73714E+01 1.83897E-01 8.06390E-01-1.05232E-01 8.49500E-02
 -1       379 7.58950E-02 3.01710E+01-6.70667E-02 1.62250E+00-2.67033E-01 2.11384E-01
 -1       380 2.78791E-02 3.35462E+01-1.76567E-01 1.61893E+00-2.91016E-01 2.40522E-01
 -1       381-9.63639E-02 3.67624E+01 1.03963E-01 1.39270E+00 1.96241E-02 2.84429E-01
 -1       382-8.58887E-02 4.02751E+01-1.94533E-02 1.10282E+00-5.93487E-02 4.37279E-02
 -1       383-2.64723E-01 2.76468E+01-6.29579E-02 1.01048E+00-1.76759E-01 1.73915E-01
 -1       384-2.14457E-02 3.04878E+01-1.16127E-01 1.70141E+00-2.36320E-01 3.25762E-01
 -1       385 1.02380E-02 3.29944E+01-7.33671E-02 1.64122E+00-2.89435E-01 3.37961E-01
 -1       386 2.43465E-02 3.54773E+01 5.90821E-02 1.43584E+00-7.89656E-02 2.62899E-01
 -1       387-1.26225E-01 3.81677E+01-1.12988E-01 1.18029E+00-9.75253E-02 1.53322E-01
 -1       388 7.43988E-02 2.83169E+01 6.49969E-02 9.92101E-01-2.31550E-01 1.62451E-01
 -1       389 5.36656E-02 3.04775E+01-1.10432E-01 1.60797E+00-2.41308E-01 3.11838E-01
 -1       390 5.73833E-03 3.28997E+01 1.06913E-02 1.61089E+00-1.96859E-01 2.88025E-01
 -1       391 4.92666E-02 3.49521E+01 1.21065E-01 1.41345E+00-1.26490E-01 2.35123E-01
 -1       392 8.20931E-02 3.81857E+01-1.61182E-02 9.87895E-01-1.17262E-01 4.81964E-02
 -1       393-1.59413E-02 2.80515E+01 4.34640E-03 1.01189E+00-1.93801E-01 1.63615E-01
 -1       394 4.82474E-03 3.04146E+01-1.73213E-01 1.60381E+00-3.18660E-01 2.02146E-01
 -1       395-7.00896E-02 3.25218E+01-8.22265E-02 1.58745E+00-2.82690E-01 1.88861E-01
 -1       396 1.11398E-01 3.44857E+01 1.56920E-01 1.46165E+00-9.02158E-02 1.88367E-01
 -1       397 9.37055E-02 3.66623E+01 2.71978E-02 1.00194E+00 6.11057E-02 1.68537E-01
 -1       398 1.44978E-01 2.90936E+01 2.11368E-04 1.13798E+00-2.62445E-01 1.08141E-01
 -1       399 1.27589E-02 3.07321E+01-7.62106E-02 1.53501E+00-3.04055E-01 1.25437E-01
 -1       400 1.46214E-01 3.23785E+01 7.02240E-02 1.72904E+00-2.33117E-01 1.86494E-01
 -1       401 2.08948E-02 3.36960E+01 7.84843E-02 1.51047E+00-1.09300E-01 8.40878E-02
 -1       402-4.95347E-02 3.54909E+01-8.97413E-03 1.06242E+00 3.73907E-03 1.00440E-01
 -1       403 7.38798E-02 2.89932E+01 3.79253E-02 9.90941E-01-2.09668E-01 1.40023E-02
 -1       404-3.05796E-02 3.06514E+01-7.67310E-02 1.49122E+00-3.35552E-01 1.26389E-01
 -1       405-4.29240E-02 3.20093E+01-4.29220E-02 1.78341E+00-1.59694E-01 1.79747E-01
 -1       406 1.17658E-01 3.33618E+01 2.51062E-02 1.43167E+00-1.18688E-01 1.43978E-01
 -1       407-4.20560E-02 3.51516E+01-1.27649E-02 8.92744E-01-5.06177E-02 1.93104E-02
 -1       408 1.96191E-02 3.00374E+01 7.49046E-02 1.09378E+00-2.21036E-01 1.22635E-01
 -1       409-1.07037E-02 3.08555E+01-8.97034E-02 1.55157E+00-2.90630E-01 1.29304E-01
 -1       410-2.25355E-02 3.17288E+01-5.45149E-02 1.62843E+00-2.34722E-01 1.48852E-01
 -1       411 6.76879E-02 3.26096E+01 5.16510E-02 1.48977E+00-1.06931E-01 1.28208E-01
 -1       412 9.39978E-03 3.35637E+01-5.16125E-02 9.81994E-01-6.84807E-03 1.06371E-01
 -1       413 4.56366E-02 3.03315E+01 2.52487E-02 1.11131E+00-1.74778E-01 7.48585E-02
 -1       414-9.92035E-03 3.08955E+01-5.66752E-02 1.50694E+00-2.69299E-01 7.93789E-02
 -1       415 1.17872E-02 3.15779E+01 2.69325E-02 1.63063E+00-1.72524E-01 9.36246E-02
 -1       416 8.35090E-03 3.20182E+01 1.66037E-02 1.48332E+00-1.33382E-01 4.78626E-02
 -1       417-5.93440E-02 3.25841E+01-9.79574E-02 9.46486E-01-9.87850E-02 7.23237E-02
 -1       418 7.60145E-02 3.05372E+01-3.04853E-02 1.03992E+00-2.38274E-01 5.05319E-03
 -1       419-4.68948E-02 3.09670E+01-9.85937E-02 1.53979E+00-2.80625E-01 1.79114E-02
 -1       420-4.03179E-02 3.12816E+01-4.27129E-02 1.61205E+00-2.20548E-01 1.56821E-02
 -1       421 1.83398E-02 3.15028E+01 3.38049E-02 1.54428E+00-1.11406E-01 4.29042E-03
 -1       422-2.52981E-02 3.18896E+01 5.17064E-03 9.73267E-01-3.39282E-02 2.60330E-02
 -1       423 6.71216E-02 3.13651E+01 1.26620E-03 1.08154E+00-2.56427E-01 4.36825E-02
 -1       424-2.41490E-02 3.12051E+01-3.50380E-02 1.51881E+00-2.43885E-01-7.18318E-03
 -1       425-1.17876E-02 3.10536E+01 7.08463E-03 1.64666E+00-1.35633E-01 1.73649E-02
 -1       426 4.21228E-02 3.08001E+01 5.52836E-02 1.51641E+00-1.14013E-01-1.26449E-02
 -1       427-5.55442E-02 3.08334E+01 5.82224E-02 9.29412E-01-3.05730E-02 2.49809E-02
 -1       428 2.08999E-02 3.15562E+01-6.08583E-02 1.01342E+00-2.90535E-01-5.71475E-02
 -1       429-8.56005E-02 3.11201E+01-4.09077E-02 1.56254E+00-2.08181E-01-1.07318E-01
 -1       430 5.43723E-03 3.07752E+01 7.49173E-03 1.66972E+00-1.53873E-01-5.09961E-02
 -1       431 3.15077E-02 3.02617E+01-3.91085E-02 1.53453E+00-1.23808E-01-1.19065E-01
 -1       432-3.65358E-02 2.99108E+01 1.36011E-02 8.46620E-01-3.80054E-02-4.58690E-02
 -1       433 5.55029E-02 3.20599E+01 3.07611E-02 1.04478E+00-2.25157E-01-4.87535E-02
 -1       434-2.80777E-02 3.12699E+01-6.39529E-02 1.55725E+00-2.16353E-01-9.46115E-02
 -1       435 3.45673E-02 3.04763E+01-1.15442E-01 1.65670E+00-1.18586E-01-1.03557E-01
 -1       436 3.50952E-03 2.97045E+01-5.12181E-02 1.53990E+00-1.02674E-01-8.08904E-02
 -1       437-6.16114E-02 2.90438E+01 2.86815E-02 1.01001E+00-2.23481E-02-4.81203E-02
 -1       438 3.73251E-02 3.23993E+01 1.62917E-02 1.12481E+00-2.09266E-01-5.54162E-02
 -1       439 2.11208E-03 3.14068E+01-1.87447E-02 1.55082E+00-1.65425E-01-8.98348E-02
 -1       440 6.74794E-02 3.02216E+01 2.72501E-02 1.73195E+00-1.32771E-01-1.14198E-01
 -1       441-5.89769E-02 2.89798E+01-3.32881E-02 1.48291E+00-5.51571E-02-7.54275E-02
 -1       442 1.94737E-02 2.74058E+01 1.67906E-02 8.79721E-01-6.04591E-02-1.08274E-03
 -1       443 3.88744E-02 3.28393E+01-2.98428E-02 1.10304E+00-1.76707E-01-8.70342E-02
 -1       444-3.98460E-02 3.11872E+01-2.31931E-02 1.58746E+00-2.19763E-01-1.30056E-01
 -1       445 5.12294E-02 2.97643E+01-7.85372E-02 1.68898E+00-8.22782E-02-1.40825E-01
 -1       446-5.36468E-02 2.85921E+01-8.29312E-02 1.53245E+00-7.03059E-02-9.43620E-02
 -1       447 4.66455E-02 2.69649E+01 3.60157E-02 1.02760E+00-6.94642E-02-1.08364E-01
 -1       448-4.78503E-02 3.31997E+01-1.21721E-01 9.99030E-01-2.06506E-01-5.18070E-02
 -1       449-3.82472E-02 3.14997E+01-2.26834E-03 1.51763E+00-2.75746E-01-1.46056E-01
 -1       450-2.60329E-03 2.96326E+01-1.97269E-04 1.50983E+00-1.88512E-01-1.24934E-01
 -1       451 2.64712E-02 2.75955E+01-7.64652E-02 1.49331E+00-1.13661E-01-1.06804E-01
 -1       452 4.86639E-02 2.54409E+01 4.99386E-03 8.07932E-01-1.53035E-01-4.61124E-02
 -1       453 5.68954E-03 3.33870E+01 4.23938E-02 9.37263E-01-2.31516E-01-2.30510E-01
 -1       454-8.50152E-02 3.12601E+01 5.85342E-03 1.64259E+00-2.89435E-01-4.17462E-01
 -1       455-3.98820E-02 2.92292E+01-3.29929E-02 1.34815E+00-2.17575E-01-2.56898E-01
 -1       456-7.36612E-02 2.69987E+01-1.48602E-01 1.64041E+00-1.64766E-01-3.56345E-01
 -1       457-4.06631E-02 2.47301E+01 7.28220E-02 9.06053E-01-1.01238E-01-1.58811E-01
 -1       458-2.27525E-01 3.39689E+01-6.78901E-02 9.32183E-01-3.33215E-01-1.51680E-01
 -1       459-1.00433E-01 3.14515E+01 1.02286E-02 1.51919E+00-4.06140E-01-3.42473E-01
 -1       460 1.34203E-01 2.90168E+01-2.43341E-01 1.49764E+00-2.29887E-01-3.73287E-01
 -1       461-1.57190E-01 2.65453E+01-2.12363E-01 1.56296E+00-1.40088E-01-3.20782E-01
 -1       462-5.67362E-02 2.40617E+01 1.15973E-01 9.32442E-01-2.22201E-01-1.89859E-01
 -1       463-1.78207E-01 3.50831E+01 7.89707E-02 7.85538E-01-2.94523E-01-6.24111E-02
 -1       464-1.94596E-01 3.14482E+01 3.42428E-02 1.36656E+00-3.95533E-01-3.67023E-01
 -1       465-4.06094E-02 2.84685E+01 6.30171E-03 1.47382E+00-2.46503E-01-3.79730E-01
 -1       466-1.88555E-01 2.56159E+01-2.38181E-02 1.44374E+00-7.90796E-02-3.60249E-01
 -1       467-2.39493E-01 2.16573E+01-2.68224E-02 9.22353E-01-1.88356E-01-1.82278E-01
 -1       468-1.28974E-01 3.43374E+01-3.83543E-02 9.74082E-01-1.84886E-01-2.02770E-01
 -1       469-3.82175E-01 3.12164E+01-9.65124E-03 1.45578E+00-4.41197E-01-2.86582E-01
 -1       470-1.88180E-01 2.83364E+01-5.43078E-02 1.52980E+00-2.89808E-01-3.31297E-01
 -1       471-2.09529E-01 2.53091E+01-4.50317E-02 1.56388E+00-1.32748E-01-3.02586E-01
 -1       472-2.42983E-01 2.25157E+01 1.73844E-01 1.13010E+00-1.20538E-01-2.24992E-01
 -1       473-1.64512E-01 3.46271E+01-1.04661E-01 6.22451E-01-3.48599E-01-2.37009E-01
 -1       474-4.44077E-01 3.12046E+01 1.05260E-01 1.32096E+00-5.48860E-01-2.51525E-01
 -1       475-3.95672E-01 2.76819E+01 1.34888E-02 1.23352E+00-3.68322E-01-3.65881E-01
 -1       476-2.90216E-01 2.43046E+01-1.05949E-01 1.51083E+00-1.76949E-01-3.57405E-01
 -1       477-5.52034E-01 2.03473E+01-5.77731E-02 7.74736E-01-1.50891E-01-1.96999E-01
 -1       478-1.45853E-01 3.33304E+01 2.98282E-01 3.82568E-01-3.99703E-01-5.00457E-01
 -1       479-5.09420E-01 3.06481E+01 3.16192E-01 1.26079E+00-3.01815E-01-6.11327E-01
 -1       480-5.11591E-01 2.70304E+01 1.43174E-01 9.05210E-01-3.70829E-01-5.82053E-01
 -1       481-5.71338E-01 2.33022E+01-1.52286E-02 1.50683E+00-7.98052E-02-6.14468E-01
 -1       482-2.49643E-02 1.77246E+01-5.59721E-02 1.07455E+00-3.47994E-01-2.78632E-01
 -1       483-1.55326E-01 3.43867E+01 2.36616E-01 9.99774E-02-1.44990E-01-3.79814E-01
 -1       484 1.63518E-01 3.12722E+01 8.01851E-01 1.12830E+00-2.27214E-01-6.18584E-01
 -1       485-2.13086E-01 2.73749E+01 3.93378E-01 1.11930E+00-2.13704E-01-7.79101E-01
 -1       486 9.69676E-02 2.28109E+01 2.62739E-01 1.23200E+00 4.33126E-02-8.31638E-01
 -1       487-2.84522E-01 1.80235E+01 1.88819E-01 9.74423E-01-1.75878E-01-5.46351E-01
 -1       488-2.91588E-01 3.67089E+01 1.18288E+00 1.42202E-01 6.12595E-01-5.02192E-01
 -1       489 2.03745E+00 3.19335E+01 1.92053E+00 1.29541E+00 1.23852E+00-5.68808E-01
 -1       490 7.73640E-01 2.62642E+01 7.07967E-01 7.83623E-01 2.00566E-01-8.32848E-01
 -1       491 1.50420E+00 2.26277E+01 1.17192E+00 5.02624E-01 9.52203E-01-9.16706E-01
 -1       492-2.01805E-01 1.72147E+01 7.53846E-01 3.47500E-01 2.73802E-01-4.95982E-01
 -1       493 5.50720E+00 3.89523E+01 6.47095E+00 2.63052E+00 4.47341E+00-2.68145E-01
 -1       494 7.13715E+00 3.37009E+01 6.62548E+00 1.70149E+00 4.38596E+00-3.45020E-01
 -1       495 5.21627E+00 2.81780E+01 3.55195E+00 1.30406E-01 3.28207E+00-4.09609E-01
 -1       496 3.05705E+00 2.37963E+01 2.45439E+00-1.41188E-01 2.41677E+00-2.06455E-01
 -1       497 1.85698E+00 1.70658E+01 1.03602E+00 3.03972E-01 1.27159E+00 3.60938E-01
 -1       498-1.58089E+00 5.50863E+01 2.84939E-01 2.57390E+00-2.66513E+00-2.01476E-02
 -1       499-9.52736E-01 5.26249E+01-1.00164E+00 3.05835E+00 1.12597E+00-9.06122E-01
 -1       500-2.00976E-01 5.19164E+01-2.46612E+00 2.95356E+00 2.55588E+00-9.36507E-01
 -1       501 1.79545E-01 5.00899E+01-5.05958E+00 3.44629E+00 1.42809E+00-1.19607E+00
 -1       502-4.15648E-01 4.48929E+01-4.78409E+00 1.07810E+00 1.25315E+00-9.29272E-01
 -1       503 7.07242E-01 5.15043E+01-1.99725E+00 1.72537E+00 2.20476E+00-8.32865E-01
 -1       504-3.03902E-01 6.59795E+01 2.00930E+00 3.74889E+00 5.78675E+00-1.69756E+00
 -1       505-1.02864E+00 5.90854E+01 1.91059E+00 1.25870E+00-1.17712E+00 5.26210E-01
 -1       506 2.94591E-01 5.28335E+01 2.18068E+00 1.29810E+00-4.64566E-01 4.31115E-01
 -1       507 1.58704E+00 5.01465E+01 1.50680E+00 1.39345E+00 2.05626E+00 2.46163E-01
 -1       508 1.58482E-01 5.26907E+01 1.23285E+00 8.11429E-01 1.90554E+00-4.43695E-01
 -1       509-2.15985E-01 5.16358E+01 1.79712E+00 2.86710E-01 3.49489E+00-3.32333E-01
 -1       510 1.02067E+00 5.12283E+01 2.94857E+00 1.61215E-01 4.36311E+00-3.03470E-01
 -1       511 2.16272E+00 5.87453E+01 1.08893E+00 7.72547E-01 5.13298E+00-7.14758E-01
 -1       512 1.57156E-01 5.51492E+01 1.09791E+00 1.11579E-01-1.74899E+00 5.70773E-01
 -1       513 2.69548E-01 5.27315E+01 2.68612E+00 6.79231E-01-6.94788E-01 7.93413E-01
 -1       514-7.07786E-02 4.87300E+01 3.00078E+00 6.78795E-01 7.32160E-01 7.25740E-01
 -1       515 1.35545E-01 4.97013E+01 2.35866E+00 8.07234E-01 2.32577E+00 3.28228E-03
 -1       516-6.63698E-01 4.77905E+01 3.08147E+00 3.05581E-01 3.29024E+00-1.23804E-01
 -1       517-2.95569E-01 5.21128E+01 3.00111E+00 6.69540E-01 4.86979E+00-1.75832E-01
 -1       518 5.06997E-02 5.64755E+01 8.48774E-01-5.47698E-01 4.08717E+00-5.25799E-01
 -1       519 5.37966E-01 5.66189E+01 1.34854E+00 4.13404E-01-1.46611E+00 4.69171E-01
 -1       520-2.93788E-01 5.36167E+01 3.00626E+00 2.94799E-01-4.23935E-01 7.61563E-01
 -1       521-5.94902E-01 5.30240E+01 3.88619E+00 1.10291E+00 6.15140E-01 7.75949E-01
 -1       522-5.54303E-01 5.28429E+01 3.71898E+00 7.41926E-01 2.16790E+00 4.30301E-01
 -1       523-1.15709E+00 5.31468E+01 4.24158E+00 6.29655E-01 3.54294E+00 2.67457E-02
 -1       524-9.70200E-01 5.33988E+01 3.22122E+00 6.34457E-01 3.73364E+00 1.26340E-01
 -1       525-3.06281E-01 5.62086E+01 2.34686E+00 7.95582E-01 4.49871E+00-5.73985E-02
 -1       526 3.06565E-01 5.62176E+01 1.43139E+00 1.99343E-01-8.96750E-01 4.35839E-01
 -1       527 7.02298E-01 5.34948E+01 2.60600E+00 3.36486E-01-8.27261E-01 5.97456E-01
 -1       528 2.43981E-01 5.04909E+01 3.18990E+00 6.36119E-01 1.67647E-01 7.81341E-01
 -1       529 5.53320E-01 5.03978E+01 3.14272E+00 8.79201E-01 1.29239E+00 6.68201E-01
 -1       530-2.03195E-02 4.95852E+01 3.66584E+00 8.23212E-01 2.34903E+00 4.49029E-01
 -1       531 4.01449E-01 5.23014E+01 2.94862E+00 7.08999E-01 2.68302E+00 1.37655E-01
 -1       532 2.10944E-01 5.23593E+01 8.51463E-01 5.11274E-01 2.24165E+00 1.73883E-01
 -1       533 6.19874E-01 5.61973E+01 6.56252E-01 1.49719E-01-3.32840E-01 3.01575E-01
 -1       534 4.97115E-01 5.31790E+01 2.00086E+00 3.26460E-01-5.04231E-01 4.49491E-01
 -1       535 3.94321E-01 5.18884E+01 2.55206E+00 7.85238E-01-1.28324E-01 5.09319E-01
 -1       536 7.94936E-01 5.09811E+01 2.77216E+00 6.90863E-01 8.28383E-01 3.25786E-01
 -1       537 2.11731E-01 4.95832E+01 2.83603E+00 7.70600E-01 1.43295E+00 4.31032E-01
 -1       538-1.28083E-01 4.88560E+01 1.71474E+00 9.49726E-01 1.55879E+00 3.06483E-01
 -1       539 1.00031E-01 4.99107E+01 1.48710E+00 6.43384E-01 1.56608E+00 1.89635E-01
 -1       540-8.01459E-02 5.52575E+01 1.32945E+00 1.45189E-01-2.03826E-02-1.55279E-01
 -1       541-3.10672E-01 5.46474E+01 1.49366E+00 1.02586E-01-2.32688E-02 8.35794E-02
 -1       542-6.85754E-01 5.35288E+01 2.26901E+00 1.88032E-01-9.89943E-02 3.31015E-01
 -1       543-3.35639E-01 5.28350E+01 2.13216E+00 2.36949E-01 5.19926E-01 2.36324E-01
 -1       544-5.61368E-01 5.24170E+01 2.49093E+00 4.68360E-01 8.47731E-01 3.95237E-01
 -1       545-4.33245E-01 5.21756E+01 1.89436E+00 4.60535E-01 1.27422E+00 7.37546E-01
 -1       546-4.12449E-01 4.90760E+01 1.16173E+00 8.33321E-01 9.03533E-01 5.13776E-01
 -1       547-4.02916E-02 5.21260E+01 7.84991E-01 3.01862E-01 5.34715E-02-7.23344E-02
 -1       548-1.88728E-02 5.17031E+01 4.33801E-01 5.11738E-01-3.82602E-01-5.35314E-03
 -1       549-2.50018E-01 5.02939E+01 1.22836E+00 6.01201E-01-2.37057E-01 2.90276E-01
 -1       550-3.27269E-02 5.03765E+01 8.60770E-01 4.88583E-01 9.07830E-02 3.24014E-01
 -1       551-1.70323E-01 4.77880E+01 1.46397E+00 7.12819E-01 2.71588E-01 2.99448E-01
 -1       552 3.23583E-01 4.91733E+01 1.21996E+00 1.06422E+00 2.52462E-01 4.88297E-01
 -1       553 2.84438E-01 4.62652E+01 6.00941E-01 1.03295E+00 5.01939E-01 8.21081E-02
 -1       554-2.65507E-01 5.35820E+01 5.72504E-01 5.41923E-01-1.95680E-01 3.14330E-02
 -1       555-5.64379E-01 5.41690E+01 1.16499E+00 7.23985E-01 5.11147E-02 9.58647E-02
 -1       556-5.74392E-01 5.24160E+01 1.21141E+00 9.96364E-01-2.39685E-01 2.05896E-01
 -1       557-3.36116E-01 5.17221E+01 7.93854E-01 9.11402E-01-1.44094E-01 3.26957E-01
 -1       558-2.13217E-01 5.10666E+01 1.27619E+00 8.35958E-01-4.72497E-02 4.46420E-01
 -1       559 5.53047E-01 4.73133E+01 1.03950E+00 9.40883E-01-4.38475E-02-4.36745E-02
 -1       560-1.99638E-01 4.73357E+01 9.64109E-01 1.13886E+00 1.61786E-01 3.59458E-02
 -1       561-1.37679E-01 5.19387E+01 4.61652E-01 6.27407E-01-6.81844E-02 9.20992E-02
 -1       562-1.00320E-01 5.05537E+01 6.81616E-01 7.21869E-01-4.48824E-02 1.19145E-01
 -1       563 5.05795E-02 4.81594E+01 7.44449E-01 5.08084E-01-2.20682E-01 2.00683E-01
 -1       564 3.82607E-01 4.92419E+01 4.64560E-01 6.97279E-01-3.55175E-01 1.77960E-01
 -1       565 3.91661E-01 4.65067E+01 8.28817E-01 6.93956E-01-3.37727E-01 2.48286E-01
 -1       566 6.86976E-01 4.52900E+01 7.26664E-01 8.14552E-01-2.86550E-01 1.99248E-01
 -1       567 2.18730E-01 4.44457E+01 5.58202E-01 1.10625E+00-2.59036E-01-1.15456E-01
 -1       568 4.57217E-01 5.04075E+01 3.83336E-01 5.47249E-01-2.60933E-02 1.28504E-01
 -1       569 4.86167E-01 4.98358E+01 6.97293E-01 7.60635E-01-6.83408E-02 4.22793E-02
 -1       570 4.35254E-01 4.81985E+01 5.70402E-01 9.84293E-01-4.69943E-01 2.84392E-01
 -1       571 2.81001E-01 4.72127E+01 5.36235E-01 4.93367E-01-3.82841E-01 1.48341E-01
 -1       572 3.36460E-01 4.52662E+01 8.90479E-01 8.24011E-01-3.89764E-01 1.97578E-01
 -1       573 6.17020E-01 4.62230E+01 4.43431E-01 5.23216E-01-5.11190E-01 6.14753E-01
 -1       574 5.26052E-01 4.46413E+01 8.69195E-01 7.18938E-01-4.76985E-01 6.63408E-02
 -1       575 2.20823E-01 5.09505E+01 8.54346E-01 1.58961E-01 7.57730E-01 2.43528E-02
 -1       576 8.65041E-02 4.87854E+01 3.90726E-01 7.94304E-01-1.18268E-01 1.19147E-01
 -1       577-1.38142E-01 4.96824E+01 6.05693E-01 4.82787E-01-5.37260E-01 5.15780E-02
 -1       578-3.06039E-01 4.81911E+01 5.03948E-01 2.87796E-01-3.77341E-01 8.58593E-02
 -1       579-3.34361E-01 4.76457E+01 7.47113E-01 1.54037E-01-3.87725E-01 2.97127E-01
 -1       580-2.33489E-01 4.42923E+01 2.69946E-01 6.60457E-01-6.13676E-01 1.82331E-01
 -1       581-2.57151E-02 4.31040E+01 7.51084E-01 2.51550E-01-8.74348E-01 5.19896E-02
 -1       582-8.29774E-02 4.80257E+01 1.60517E-01 5.03882E-01 6.52908E-02 9.05467E-02
 -1       583 6.42215E-01 4.92665E+01 4.37394E-01 6.78071E-01-2.06152E-01-4.71518E-02
 -1       584-9.20040E-02 4.57654E+01 3.69167E-01 6.17191E-01-4.58610E-01 4.72084E-02
 -1       585 2.38989E-02 4.60016E+01 1.29589E-01 4.74671E-01-5.21895E-01 1.30963E-01
 -1       586-1.53332E-01 4.41480E+01 3.64549E-01 7.61323E-01-6.00455E-01 1.27434E-01
 -1       587 3.73448E-01 4.43279E+01 4.91719E-01 6.87852E-01-6.17586E-01 1.88412E-01
 -1       588 8.99038E-02 4.19208E+01 1.80524E-01 7.07143E-01-5.50340E-01 3.51625E-02
 -1       589-1.82961E-01 4.88395E+01 1.56631E-01 1.08233E+00 1.30002E-01 2.95292E-01
 -1       590-3.57221E-04 4.71406E+01 3.09715E-01 7.81792E-01-2.71685E-01 2.33290E-01
 -1       591-2.89471E-01 4.73436E+01 4.53304E-01 8.36165E-01-4.65111E-01 4.25579E-02
 -1       592-2.10142E-01 4.61226E+01 1.48223E-01 9.08381E-01-5.24381E-01 1.40842E-01
 -1       593-3.35938E-01 4.55574E+01 5.47349E-01 1.00651E+00-5.86195E-01 1.40505E-01
 -1       594-3.52041E-01 4.37209E+01 2.94531E-01 9.38133E-01-5.80715E-01 8.13894E-03
 -1       595-1.86503E-01 4.35267E+01 5.35689E-01 9.38807E-01-5.98253E-01-8.36834E-02
 -1       596 1.08634E-01 4.56339E+01 1.19134E-01 8.48699E-01 2.22509E-02 6.35545E-02
 -1       597 2.51953E-01 4.50467E+01 3.52429E-01 7.17931E-01-1.94759E-01 1.71687E-01
 -1       598 5.79475E-02 4.40148E+01 1.30891E-01 7.76412E-01-4.11734E-01 9.07699E-02
 -1       599 4.38190E-01 4.40126E+01 8.27064E-02 6.05143E-01-5.90534E-01 1.21603E-01
 -1       600 2.08444E-02 4.21191E+01 2.32755E-01 5.73713E-01-5.78063E-01 8.27920E-02
 -1       601 2.33082E-01 4.18963E+01 4.90184E-01 8.31601E-01-7.64308E-01-7.06721E-02
 -1       602 3.00643E-01 4.04920E+01 2.32864E-01 7.13317E-01-4.36604E-01-4.64499E-02
 -1       603 2.45840E-01 4.51727E+01 2.84512E-01 8.35404E-01-2.07511E-01-3.18162E-02
 -1       604 1.94326E-01 4.41724E+01 4.28224E-01 7.10300E-01-2.04588E-01 5.86846E-02
 -1       605 4.41266E-01 4.38278E+01 3.57126E-01 8.04320E-01-6.27782E-01 1.45291E-01
 -1       606 3.15263E-01 4.27161E+01-2.09721E-03 5.42919E-01-5.09636E-01 6.00411E-02
 -1       607 2.87003E-01 4.14192E+01 3.70859E-01 7.76765E-01-5.57153E-01 7.55420E-02
 -1       608 1.93026E-01 4.06297E+01 3.65043E-01 7.89991E-01-6.66925E-01 1.19628E-01
 -1       609 2.83604E-01 3.99438E+01 4.74712E-01 6.93078E-01-5.11024E-01 2.84903E-04
 -1       610-2.09042E-01 4.55859E+01 3.28997E-01 7.17848E-01-4.81800E-02 2.14474E-02
 -1       611-4.49140E-01 4.50155E+01 4.71550E-01 6.17853E-01-2.07781E-01 8.56037E-02
 -1       612-3.58003E-01 4.42473E+01 4.66581E-01 4.00079E-01-5.16624E-01 1.02716E-01
 -1       613-1.44264E-01 4.35054E+01 2.86689E-01 4.13052E-01-5.01439E-01 5.01289E-02
 -1       614-2.21543E-01 4.27597E+01 5.22280E-01 4.33988E-01-6.02142E-01 1.21661E-01
 -1       615-2.20670E-01 4.24704E+01 4.18326E-01 4.95699E-01-5.89650E-01 3.97645E-01
 -1       616-9.70118E-02 3.98717E+01 6.03034E-01 5.79770E-01-4.45115E-01 1.15550E-02
 -1       617-6.81896E-02 4.24593E+01 1.30883E-01 7.17905E-01-2.25936E-01-2.50574E-02
 -1       618 1.79238E-01 4.22166E+01 2.27835E-01 4.00360E-01-2.25194E-01-5.92204E-03
 -1       619 4.31666E-03 4.15006E+01 1.89920E-01 5.24574E-01-4.10169E-01 2.45599E-02
 -1       620 1.44208E-01 4.14051E+01 1.46906E-01 3.74709E-01-5.13974E-01 4.94569E-02
 -1       621-5.53763E-02 3.94788E+01 1.51487E-01 4.60325E-01-6.99699E-01 4.17966E-02
 -1       622 4.94418E-02 3.97564E+01 2.65840E-01 3.61779E-01-5.01700E-01 9.82587E-02
 -1       623 1.19390E-01 3.84151E+01 3.07811E-01 6.03724E-01-4.90195E-01-4.83917E-02
 -1       624 1.76161E-01 4.29905E+01 3.61537E-01 7.08047E-01-3.46037E-01 9.89218E-02
 -1       625 1.90316E-02 4.10768E+01 2.24769E-01 6.66845E-01-2.40440E-01 5.40160E-02
 -1       626 1.23382E-01 4.09650E+01 3.65922E-01 6.68288E-01-4.39433E-01 4.48336E-03
 -1       627 9.37500E-02 4.00931E+01 2.31808E-01 5.84276E-01-4.15169E-01 5.97513E-04
 -1       628 7.74351E-02 4.00957E+01 3.73188E-01 6.38790E-01-8.65076E-01 1.37611E-01
 -1       629 6.91189E-02 3.84865E+01 1.80931E-01 6.40752E-01-5.74972E-01-1.02938E-01
 -1       630-1.00084E-01 3.90012E+01 3.15527E-01 9.09166E-01-3.18477E-01-3.79531E-02
 -1       631 5.26831E-02 4.10570E+01 1.31019E-01 6.51343E-01-4.80684E-02 3.17165E-03
 -1       632-1.51739E-02 4.00733E+01 1.81570E-01 6.81381E-01-2.09084E-01 1.68418E-02
 -1       633 3.20527E-02 3.92337E+01 2.78325E-01 6.83344E-01-4.71253E-01-6.71287E-04
 -1       634 5.42948E-02 3.86520E+01 7.83845E-03 5.67695E-01-5.26672E-01 5.14356E-02
 -1       635 4.56418E-02 3.82318E+01 1.02229E-01 5.46662E-01-7.60797E-01-1.32505E-02
 -1       636 1.66305E-01 3.73471E+01 1.90127E-01 6.49045E-01-5.59954E-01 1.98029E-02
 -1       637 6.21746E-02 3.69904E+01-4.71164E-02 6.97361E-01-5.10136E-01 9.28779E-03
 -1       638 6.21100E-02 3.94670E+01 1.33453E-01 7.62418E-01-1.68339E-01-5.19853E-02
 -1       639 1.78176E-01 3.93173E+01 3.29614E-01 7.87482E-01-1.47493E-01-7.05037E-02
 -1       640 1.75708E-01 3.82462E+01 3.32568E-01 6.95088E-01-4.96882E-01 2.35667E-02
 -1       641 3.03471E-01 3.85232E+01 2.48401E-01 6.10644E-01-6.16873E-01 4.08999E-02
 -1       642 2.04664E-01 3.74246E+01 3.04509E-01 7.13083E-01-5.95458E-01 7.11588E-02
 -1       643 5.46347E-01 3.77255E+01 3.48001E-01 5.95369E-01-5.57404E-01 1.58005E-01
 -1       644 2.68241E-01 3.65480E+01 2.43197E-01 6.87078E-01-4.29178E-01 3.91540E-02
 -1       645 2.38300E-01 3.94601E+01 3.72727E-01 6.75567E-01-1.50083E-01-1.25500E-01
 -1       646-3.85553E-02 3.88177E+01 4.05275E-01 6.51464E-01-7.47526E-02 2.27562E-02
 -1       647-1.52555E-01 3.86533E+01 3.47633E-01 6.51004E-01-4.10125E-01 2.30480E-02
 -1       648-7.97118E-02 3.83065E+01 1.73886E-01 5.09639E-01-6.32525E-01 2.65778E-02
 -1       649-1.44454E-01 3.77234E+01 2.43614E-01 5.56681E-01-5.97089E-01 9.96700E-02
 -1       650 4.71422E-02 3.66096E+01 1.59339E-01 5.75887E-01-5.16825E-01-1.85829E-02
 -1       651 1.65302E-01 3.62060E+01 2.97893E-01 5.35163E-01-4.21411E-01 7.49478E-02
 -1       652 8.03639E-02 3.78313E+01 4.13897E-02 6.72132E-01-6.19410E-02 2.63609E-02
 -1       653 5.95339E-02 3.69943E+01 1.97796E-01 5.90341E-01-1.61805E-01-7.16791E-03
 -1       654 2.70798E-02 3.65029E+01 1.51810E-01 6.16513E-01-4.74461E-01 6.86193E-03
 -1       655 1.10573E-01 3.65247E+01 5.82285E-02 4.82570E-01-5.98237E-01 1.68623E-02
 -1       656 7.02993E-02 3.57447E+01 1.31381E-01 6.29180E-01-6.68621E-01 1.53400E-02
 -1       657 1.97839E-01 3.54391E+01 1.66258E-01 4.81841E-01-5.47120E-01-6.57837E-03
 -1       658 9.25147E-02 3.49823E+01 4.02323E-02 6.47245E-01-4.15428E-01-1.73681E-02
 -1       659 1.30106E-01 3.62696E+01 1.13124E-01 5.15531E-01-3.93950E-02-2.79223E-02
 -1       660 5.96764E-02 3.58521E+01 1.59946E-01 6.11987E-01-2.26911E-01-1.85839E-02
 -1       661 7.97012E-02 3.53237E+01 1.52467E-01 6.66835E-01-5.02832E-01 5.66814E-03
 -1       662 1.93080E-01 3.53382E+01 6.94748E-04 4.80126E-01-6.21341E-01 1.65603E-02
 -1       663 1.01709E-01 3.47202E+01 1.55082E-01 6.59653E-01-5.92216E-01 3.38373E-02
 -1       664 6.12117E-02 3.42577E+01 1.35341E-01 6.81416E-01-5.65098E-01 1.90462E-02
 -1       665 4.32726E-02 3.40497E+01 7.30849E-02 6.30158E-01-4.17194E-01 4.23643E-02
 -1       666-1.04255E-01 3.54763E+01 1.41328E-01 4.59396E-01 4.22642E-02-2.69554E-02
 -1       667-8.22113E-02 3.53835E+01 1.12165E-01 4.47697E-01-1.68197E-01 1.97423E-02
 -1       668-2.66274E-03 3.48751E+01 1.77088E-01 6.18178E-01-4.70035E-01 2.62541E-02
 -1       669-1.02321E-02 3.47885E+01 4.20757E-02 4.19517E-01-6.09516E-01 1.41921E-02
 -1       670-2.56409E-02 3.42798E+01 1.97953E-01 6.37458E-01-6.08455E-01 2.43981E-02
 -1       671-1.19608E-01 3.43323E+01 1.91055E-01 4.55496E-01-6.68787E-01 1.60974E-02
 -1       672-1.63698E-02 3.42021E+01 1.34992E-01 4.98765E-01-3.94902E-01 1.00494E-01
 -1       673-9.91181E-03 3.38092E+01 9.53137E-03 5.89075E-01-2.68118E-02-2.73660E-05
 -1       674-8.42451E-02 3.40232E+01 3.49186E-02 5.96345E-01-1.52007E-01-1.27988E-02
 -1       675 3.89194E-02 3.36011E+01 7.40130E-02 6.84104E-01-5.01677E-01-2.25106E-03
 -1       676 6.60864E-02 3.36104E+01 4.13183E-02 5.31226E-01-5.88037E-01 2.29473E-02
 -1       677 6.27176E-02 3.31465E+01 1.06872E-01 7.05770E-01-6.14482E-01 2.56769E-02
 -1       678-1.63780E-02 3.29971E+01 7.56104E-02 5.99468E-01-6.36330E-01 4.03316E-02
 -1       679-1.35097E-02 3.29504E+01-1.60310E-02 6.01458E-01-4.45007E-01 4.03471E-02
 -1       680-2.48972E-02 3.32659E+01 3.39977E-02 5.71326E-01-6.57298E-02-2.38495E-02
 -1       681-5.46462E-02 3.31594E+01 1.22990E-01 5.81892E-01-1.37727E-01-6.85697E-03
 -1       682-3.42403E-02 3.29915E+01 8.70129E-02 6.14407E-01-4.73020E-01-2.97078E-05
 -1       683-2.38498E-02 3.28267E+01 6.09304E-02 5.40098E-01-5.83274E-01 1.98276E-02
 -1       684-3.01706E-02 3.26827E+01 1.24340E-01 6.28114E-01-6.10511E-01 1.13014E-02
 -1       685 1.31647E-02 3.24624E+01 4.68188E-02 5.80024E-01-6.64650E-01 1.58569E-02
 -1       686-2.96872E-02 3.21388E+01 3.97173E-02 6.31024E-01-4.11294E-01 2.93813E-02
 -1       687-6.61366E-02 3.19533E+01-2.67592E-02 5.77113E-01-5.59213E-02 1.65683E-02
 -1       688-6.32515E-02 3.18806E+01 1.25726E-02 6.13262E-01-2.02113E-01 1.57268E-04
 -1       689-6.22175E-02 3.17323E+01 2.66433E-03 6.70535E-01-4.77905E-01-5.71310E-03
 -1       690-2.82809E-02 3.17052E+01 1.42980E-02 5.47433E-01-5.72291E-01-1.44378E-02
 -1       691-1.50656E-02 3.16645E+01 2.80885E-03 6.91166E-01-6.18584E-01-1.16007E-02
 -1       692-7.20560E-03 3.14738E+01-3.68304E-02 6.21049E-01-6.31068E-01-2.93930E-02
 -1       693-1.22946E-01 3.13125E+01-1.24718E-02 6.81473E-01-4.47979E-01-1.60462E-02
 -1       694 2.74707E-02 3.03997E+01 4.35581E-02 6.02090E-01-7.03023E-02 3.63335E-03
 -1       695 5.92900E-02 3.07186E+01 6.63923E-04 5.79478E-01-1.88598E-01 2.09501E-02
 -1       696 4.03197E-02 3.06832E+01 1.70427E-02 6.61673E-01-4.59204E-01 4.89828E-03
 -1       697 3.22523E-02 3.06811E+01 3.73523E-02 5.34977E-01-5.94815E-01-1.23445E-02
 -1       698 7.06132E-02 3.06838E+01 3.69517E-02 6.86968E-01-6.17160E-01-1.11329E-02
 -1       699 7.21259E-02 3.09142E+01 3.40499E-02 7.09395E-01-6.34016E-01 2.83917E-02
 -1       700 1.46054E-02 3.06553E+01 1.53247E-02 7.82011E-01-3.78373E-01-1.10244E-02
 -1       701 8.12299E-02 2.96183E+01 3.64187E-02 6.32635E-01-4.26268E-02-5.18586E-02
 -1       702 3.97684E-02 2.95213E+01-3.27918E-02 5.79014E-01-2.10426E-01-8.48792E-03
 -1       703-3.71735E-02 2.98705E+01-5.67096E-02 6.22628E-01-5.28330E-01 3.34268E-02
 -1       704 9.77446E-03 2.98514E+01-6.38400E-02 5.31212E-01-5.61474E-01 1.14490E-02
 -1       705-9.62174E-03 2.97627E+01-3.55106E-02 6.43321E-01-6.39407E-01-3.37863E-02
 -1       706 1.32869E-02 3.00734E+01-6.62402E-02 7.04277E-01-6.14252E-01-1.45842E-02
 -1       707 2.07408E-02 3.02034E+01 1.30162E-01 7.06520E-01-4.73474E-01 1.29826E-02
 -1       708 1.14152E-02 2.86576E+01-7.94052E-02 6.16000E-01-4.02392E-02-1.13086E-02
 -1       709-2.91922E-02 2.84719E+01-4.73661E-02 5.67388E-01-2.67985E-01-1.54139E-02
 -1       710 3.52834E-03 2.89052E+01-8.17244E-02 5.56958E-01-4.77049E-01 5.95675E-03
 -1       711 1.65685E-02 2.87898E+01-4.76514E-02 4.70643E-01-5.85352E-01 1.18096E-03
 -1       712 2.43877E-02 2.91954E+01-6.52064E-02 5.77866E-01-6.21720E-01-5.98142E-03
 -1       713 1.96308E-03 2.93007E+01-7.85227E-03 5.57333E-01-6.40326E-01-3.06636E-02
 -1       714 6.60393E-02 2.94261E+01-1.12409E-02 6.63050E-01-4.26572E-01-2.65096E-02
 -1       715-3.93951E-03 2.72455E+01-2.47798E-01 5.74899E-01-8.36031E-03-2.45622E-03
 -1       716-1.03657E-01 2.72236E+01-1.30409E-01 6.43217E-01-2.40117E-01-4.01846E-02
 -1       717 8.00108E-02 2.73525E+01-2.14227E-01 5.59136E-01-5.03600E-01 4.26041E-03
 -1       718 3.30767E-02 2.73352E+01-1.23563E-01 4.30936E-01-6.30256E-01-2.66552E-02
 -1       719 1.29523E-01 2.78239E+01-2.21577E-01 5.36529E-01-6.38881E-01 3.82945E-04
 -1       720 9.59751E-02 2.79454E+01-1.56688E-01 5.01987E-01-6.68782E-01-1.36807E-02
 -1       721 1.05051E-01 2.84817E+01-1.17596E-01 6.33477E-01-4.76882E-01-5.87376E-02
 -1       722-1.53501E-01 2.63693E+01-1.96983E-01 5.87046E-01-1.01655E-01-3.25253E-03
 -1       723-2.34122E-01 2.63031E+01-2.61337E-01 7.24956E-01-1.76942E-01 2.28741E-02
 -1       724-1.79276E-01 2.69585E+01-2.65556E-01 6.75732E-01-5.09246E-01-9.50270E-04
 -1       725-2.02219E-01 2.68755E+01-1.51368E-01 5.47326E-01-6.08785E-01-2.34447E-02
 -1       726-9.50301E-02 2.75561E+01-1.90653E-01 6.76189E-01-5.89578E-01-2.66080E-02
 -1       727-1.21674E-01 2.78679E+01-2.09403E-01 6.82571E-01-5.86138E-01-6.48875E-03
 -1       728-1.69209E-01 2.78054E+01-1.70984E-01 6.46034E-01-4.27361E-01 6.27957E-04
 -1       729-7.68645E-02 2.49375E+01-1.88201E-01 5.67123E-01-9.42266E-02-6.84983E-02
 -1       730-1.43266E-02 2.55639E+01-2.11110E-01 7.56028E-01-2.35241E-01-3.52618E-02
 -1       731-4.25572E-02 2.60613E+01-2.23869E-01 6.95678E-01-5.23516E-01-3.05831E-02
 -1       732-9.71562E-02 2.61024E+01-1.59036E-01 5.82185E-01-4.84342E-01-6.43157E-02
 -1       733-8.59659E-03 2.65738E+01-1.96287E-01 7.02829E-01-5.69271E-01-1.07071E-02
 -1       734 3.68527E-02 2.70689E+01-1.82715E-01 7.54303E-01-5.84421E-01-1.57547E-02
 -1       735 1.52077E-02 2.72805E+01 6.87185E-04 6.66645E-01-4.22757E-01-2.66049E-02
 -1       736-5.45349E-02 2.37365E+01-1.72587E-01 6.20483E-01-6.87632E-02-1.10648E-01
 -1       737 1.73871E-01 2.39557E+01-1.76557E-01 7.24144E-01-3.32289E-01-5.06721E-02
 -1       738-7.97370E-02 2.44924E+01-4.59599E-01 6.46641E-01-6.13179E-01-3.08570E-02
 -1       739 1.16016E-01 2.50334E+01-2.64393E-01 6.77301E-01-4.47035E-01-3.03274E-02
 -1       740 2.23373E-01 2.51716E+01-3.55464E-01 7.85146E-01-5.87628E-01-3.03582E-02
 -1       741 2.10050E-01 2.53651E+01-3.20726E-01 7.68940E-01-6.00147E-01-4.36210E-02
 -1       742 9.33101E-02 2.53969E+01-1.76270E-01 6.64806E-01-4.57032E-01-5.41685E-02
 -1       743 1.16648E-01 2.28744E+01-1.55552E-01 5.64607E-01-1.93812E-01 8.44705E-03
 -1       744-1.70843E-01 2.28756E+01-3.77772E-01 5.87668E-01-4.12612E-01-2.28021E-02
 -1       745-4.32417E-02 2.41042E+01-4.11469E-01 6.88969E-01-6.04793E-01-2.16344E-02
 -1       746-8.13413E-02 2.43419E+01-3.54659E-01 4.90836E-01-5.12522E-01-2.84447E-03
 -1       747 1.38057E-01 2.52383E+01-3.61787E-01 7.23179E-01-5.11820E-01-3.19061E-02
 -1       748 1.35037E-01 2.55490E+01-2.48328E-01 6.40418E-01-4.65300E-01-4.80052E-02
 -1       749 1.56065E-01 2.61750E+01-1.71736E-01 6.28460E-01-3.17531E-01-7.83476E-02
 -1       750-1.87111E-01 2.05199E+01-4.45236E-01 2.70185E-01-1.06760E-01 9.07902E-02
 -1       751 2.90913E-01 2.20640E+01-3.91805E-01 6.74852E-01-4.53281E-01-7.30276E-02
 -1       752-1.24579E-01 2.21103E+01-5.61625E-01 6.41640E-01-7.88136E-01-2.36404E-03
 -1       753 1.04655E-01 2.27455E+01-6.14656E-01 4.17728E-01-5.17281E-01 2.38950E-02
 -1       754 3.12949E-01 2.32114E+01-6.96256E-01 5.81596E-01-4.73198E-01-1.24615E-02
 -1       755 2.32091E-01 2.33142E+01-5.83968E-01 4.18012E-01-4.48769E-01-1.43570E-02
 -1       756 2.31650E-01 2.41529E+01-4.61869E-01 4.87399E-01-3.19763E-01-4.72362E-02
 -1       757-4.00561E-01 2.04840E+01-1.37317E-01 5.29326E-01-3.02085E-01 3.18570E-02
 -1       758-3.96331E-01 2.08295E+01-6.24885E-01 6.60424E-01-4.95045E-01-1.01899E-01
 -1       759-3.78769E-01 2.17326E+01-6.17652E-01 1.02674E+00-8.13657E-01-1.65523E-01
 -1       760-3.66916E-01 2.25604E+01-5.25980E-01 7.32106E-01-5.88444E-01-4.55768E-02
 -1       761-2.03295E-01 2.35911E+01-6.82279E-01 8.29337E-01-3.96200E-01-2.67382E-02
 -1       762-2.50802E-01 2.41662E+01-6.16240E-01 9.28724E-01-3.08680E-01 2.55158E-02
 -1       763-2.03424E-01 2.40181E+01-4.33401E-01 5.98963E-01-2.34356E-01 3.70802E-02
 -1       764-5.34375E-02 1.82835E+01-2.92542E-01 7.58519E-01-4.09949E-01-4.87685E-02
 -1       765-2.16225E-01 1.98370E+01-6.43580E-01 8.38907E-01-5.29237E-01-6.72840E-02
 -1       766 4.54983E-03 2.16150E+01-4.69749E-01 9.81560E-01-7.26372E-01-8.03366E-02
 -1       767-2.59448E-01 2.16399E+01-5.24414E-01 8.27706E-01-5.35572E-01-9.78022E-02
 -1       768-7.05140E-02 2.26231E+01-4.89289E-01 1.06598E+00-4.14267E-01 2.07212E-02
 -1       769-3.55187E-01 2.33840E+01-6.54459E-01 9.76818E-01-3.50817E-01 1.34217E-01
 -1       770-4.48872E-01 2.26123E+01-2.73813E-01 8.63770E-01-1.86170E-01 1.52630E-01
 -1       771 6.20831E-01 1.58156E+01-5.46179E-01 8.43576E-01-6.16192E-01-2.15169E-01
 -1       772 2.85452E-01 1.71842E+01-7.58873E-01 1.03699E+00-4.46847E-01-2.06506E-01
 -1       773 1.98621E-01 1.79361E+01-8.45024E-01 1.10751E+00-6.37048E-01-1.32157E-01
 -1       774 2.08158E-01 1.89296E+01-6.28439E-01 1.00430E+00-5.55691E-01-4.02838E-02
 -1       775 2.41354E-01 1.92938E+01-7.39886E-01 1.15193E+00-4.18586E-01-3.76231E-02
 -1       776-1.47041E-02 2.07856E+01-6.70733E-01 1.14233E+00-4.72032E-01 1.73317E-01
 -1       777-3.63643E-01 2.07765E+01-4.72904E-01 1.20247E+00 2.71392E-02-1.36801E-02
 -1       778-5.28911E-02 1.67854E+01-4.29980E-01 8.28545E-01-3.18627E-01-1.77826E-01
 -1       779-1.05048E-01 1.71769E+01-4.43395E-01 9.45531E-01-3.66427E-01-2.27754E-01
 -1       780 3.59828E-01 1.92462E+01 1.78015E-01 9.83752E-01-3.96600E-01-1.85764E-01
 -1       781 1.92325E-01 1.82597E+01 1.16425E-01 7.28405E-01-4.11845E-01-1.25705E-01
 -1       782 2.13465E-01 2.09403E+01 2.52454E-01 9.88529E-01-5.76025E-01 1.33729E-03
 -1       783 2.34117E-01 2.02573E+01 4.25526E-02 1.17064E+00-6.90035E-01 1.13709E-01
 -1       784 1.47371E-01 2.22745E+01 1.16084E-01 7.62588E-01-2.06837E-01 4.87405E-02
 -1       785 1.08544E-01 1.40558E+01-6.04694E-02 3.67297E-01-8.78933E-02-7.29228E-02
 -1       786 2.81906E-01 1.60713E+01-3.82975E-02 2.64925E-01 2.54113E-01-1.84404E-01
 -1       787 8.39512E-01 1.57902E+01 6.15281E-01 1.69981E-02 1.57937E-02-2.62231E-01
 -1       788 9.31435E-01 1.60537E+01 8.97884E-01-1.59243E-01-4.29836E-03-1.36722E-01
 -1       789 7.93335E-01 1.74158E+01 1.15217E+00 2.10221E-01-5.40835E-01-1.31306E-01
 -1       790 1.57929E+00 1.99992E+01 1.69695E+00 1.07245E-01-1.50390E+00-6.03910E-02
 -1       791 1.01095E+00 1.89954E+01-1.26322E-01-3.82742E-02-1.05561E+00 9.16933E-02
 -1       792 2.29040E+00 1.37364E+01 3.38545E-01-7.84794E-01-1.70944E-01 6.27721E-01
 -1       793 2.86373E+00 1.68564E+01 3.56588E+00-1.88316E+00 1.19345E+00-4.19769E-02
 -1       794 2.28880E+00 1.69268E+01 3.21042E+00-1.55445E+00 3.34308E-01-1.62486E-02
 -1       795 2.59672E+00 1.81933E+01 3.74424E+00-1.43594E+00-2.92991E-01-2.63977E-02
 -1       796 3.03933E+00 1.91990E+01 4.58762E+00-1.91927E+00-1.06283E+00 1.24607E-01
 -1       797 2.31340E+00 2.01874E+01 3.48495E+00-1.49194E+00-1.92158E+00-2.00964E-01
 -1       798 2.77639E+00 2.17550E+01 2.87036E+00-1.80318E+00-1.89939E+00-2.77065E-01
 -1       799 3.46140E+00 6.12366E+01-1.06851E+00-7.79188E-01 3.96502E+00-3.42017E-01
 -1       800 5.07299E+00 5.41316E+01-7.64517E-01-4.08344E+00 3.63831E+00-3.71048E-02
 -1       801 6.61527E+00 5.58796E+01-3.10674E+00-5.84523E+00 4.15181E+00 1.29378E+00
 -1       802 4.21552E+00 5.00364E+01 1.19466E+00-7.47673E+00 3.52484E+00-1.29812E+00
 -1       803 5.13233E+00 5.45943E+01-1.04308E+00-6.90896E+00 7.57919E+00 1.91756E+00
 -1       804 2.86634E+00 6.06741E+01-1.06170E+00-2.58878E+00 3.20130E+00-1.39973E+00
 -1       805 1.80520E+00 5.22359E+01-1.42326E-01-3.45507E+00 3.77444E+00-2.20308E+00
 -1       806 2.52973E+00 4.89742E+01-1.85380E-01-5.39044E+00 2.28285E+00-1.82582E+00
 -1       807-1.03701E+00 4.37958E+01-2.06999E+00-4.45668E+00 4.69929E+00-4.75419E+00
 -1       808 1.07012E+00 3.76985E+01-1.61516E+00-2.16084E+00 1.08128E+01-1.87383E+00
 -1       809 6.50802E-01 5.40869E+01-1.04512E-01-1.79266E+00 2.37794E+00-1.09862E+00
 -1       810 5.84235E-01 4.71581E+01 1.56998E+00-1.86408E+00 3.23823E+00-2.11740E+00
 -1       811-8.25293E-01 4.06315E+01 4.65016E-01-1.34710E+00 4.03602E+00-3.13518E+00
 -1       812-1.03356E+00 3.31045E+01 3.55598E-01-5.75309E-01 5.02743E+00-3.52570E+00
 -1       813-2.51108E+00 2.90434E+01 1.18243E+00 6.49903E-01 7.25580E+00-2.55974E+00
 -1       814-4.52886E-01 4.99819E+01 1.70811E-01-8.00017E-01 1.89543E+00-8.01922E-01
 -1       815-1.07691E+00 4.14103E+01 4.90858E-01 4.76553E-01 2.70470E+00-1.46296E+00
 -1       816-9.26802E-01 3.75819E+01 4.19803E-01 2.28416E-01 2.40572E+00-2.16200E+00
 -1       817-8.16563E-01 2.59671E+01 5.46514E-01 1.54071E+00 3.21385E+00-1.79876E+00
 -1       818-1.04548E+00 1.92139E+01 1.76517E+00 2.70429E+00 4.49808E+00-1.25729E+00
 -1       819-3.07770E-01 4.68210E+01-2.77696E-02-4.69868E-02 1.60280E+00-3.91030E-01
 -1       820-1.13320E+00 3.87789E+01 5.07907E-01 1.15656E+00 1.97202E+00-9.67438E-01
 -1       821-1.76243E+00 3.04239E+01-3.71017E-01 1.65383E+00 1.74764E+00-1.19486E+00
 -1       822-8.32791E-01 2.14174E+01 4.88540E-01 1.68072E+00 2.37361E+00-9.39232E-01
 -1       823-6.89604E-01 1.05478E+01 4.58455E-01 2.12780E+00 3.17535E+00-3.63044E-01
 -1       824-6.90803E-01 4.54585E+01 1.20584E-01 8.51085E-01 5.14727E-01-7.90139E-02
 -1       825-6.07194E-01 3.57322E+01 5.48254E-01 1.51892E+00 9.44381E-01-5.32997E-01
 -1       826-1.18396E+00 2.76519E+01 6.24285E-03 2.61191E+00 9.31186E-01-7.32527E-01
 -1       827-2.26575E-01 1.96497E+01 3.89917E-01 1.72290E+00 1.10002E+00-4.30091E-01
 -1       828-5.73244E-01 1.05500E+01 6.35868E-01 1.81534E+00 1.50146E+00-5.65892E-01
 -1       829-2.66566E-01 4.23089E+01-4.40066E-01 6.96307E-01 4.44958E-01-2.60516E-01
 -1       830-4.57336E-01 3.46633E+01 4.80082E-01 1.35321E+00 4.66734E-01-8.22787E-01
 -1       831-5.85172E-01 2.71439E+01 3.74385E-01 2.60393E+00 1.85489E-01-7.13116E-01
 -1       832-1.83193E-01 1.82319E+01 2.78633E-01 1.43397E+00 5.47427E-01-1.01131E+00
 -1       833-6.95217E-01 1.19516E+01 6.94718E-02 2.04133E+00 6.80996E-01-9.86018E-01
 -1       834 1.47667E-01 4.01397E+01-6.55220E-02 9.58807E-01 2.65579E-01-5.92960E-01
 -1       835-2.47824E-01 3.33815E+01 3.01632E-01 1.98188E+00 6.63706E-02-9.37245E-01
 -1       836-1.13570E-01 2.61245E+01 3.98095E-01 1.92767E+00-2.74198E-01-1.04883E+00
 -1       837-4.17265E-01 1.87225E+01 1.44317E-01 1.59872E+00 2.61171E-01-9.77713E-01
 -1       838-4.59634E-01 1.16111E+01 2.80915E-01 1.51064E+00 2.95246E-01-6.07010E-01
 -1       839 2.56145E-01 3.97326E+01 5.62917E-01 1.29196E+00 9.41568E-02-1.18294E+00
 -1       840-3.34930E-01 3.27219E+01 2.68825E-01 1.87323E+00 5.61758E-02-1.04992E+00
 -1       841-5.61241E-01 2.40224E+01-1.42009E-01 1.86750E+00-7.66154E-02-1.21298E+00
 -1       842-3.75589E-01 1.88686E+01-3.33963E-02 1.62007E+00-1.45375E-01-7.03829E-01
 -1       843-1.66754E-01 1.12281E+01 5.35576E-01 1.91097E+00-2.26406E-01-5.74321E-01
 -1       844-3.79154E-01 4.03626E+01-4.87844E-02 1.27766E+00-3.27368E-01-3.73997E-01
 -1       845-2.02021E-01 3.27157E+01 2.21721E-01 1.60340E+00-1.13289E-01-4.07021E-01
 -1       846 3.49887E-01 2.62316E+01 3.07335E-01 1.77798E+00-1.54263E-01-7.04059E-01
 -1       847-1.57946E-01 2.02829E+01 4.18241E-04 1.39696E+00-2.39494E-01-3.46854E-01
 -1       848 2.89357E-02 1.19743E+01-2.53245E-02 1.02353E+00-8.70981E-02-7.83352E-02
 -1       849-6.93241E-02 3.91758E+01-8.25135E-03 1.11879E+00-1.96479E-01-2.88349E-01
 -1       850-6.88228E-02 3.23617E+01 3.76671E-01 1.73178E+00-1.88982E-01-3.88784E-01
 -1       851-4.37148E-01 2.63793E+01 6.07216E-01 1.93339E+00-2.61129E-01-5.06562E-01
 -1       852-1.19653E-01 1.99484E+01-1.40538E-01 1.66890E+00-2.96902E-01-4.36829E-01
 -1       853-1.48166E-01 1.37743E+01-6.27292E-02 7.56607E-01-1.08134E-01-3.86659E-01
 -1       854-2.09243E-01 3.93743E+01 2.18298E-01 2.95017E-01-3.33780E-01-4.39282E-01
 -1       855-1.43780E-01 3.29748E+01 3.92927E-01 1.50696E+00-4.16801E-01-6.38997E-01
 -1       856-4.43882E-01 2.62071E+01 1.66150E-01 1.46596E+00-1.99752E-01-6.79220E-01
 -1       857-1.24459E-01 2.05544E+01-1.34326E-01 1.56069E+00-9.06327E-02-6.05034E-01
 -1       858-3.01112E-01 1.46667E+01-1.09424E-01 3.83831E-01 1.68774E-02-4.79513E-01
 -1       859 8.81517E-02 3.67198E+01-3.72999E-01 9.24878E-01-3.71319E-01-4.97592E-01
 -1       860-2.93059E-02 3.20150E+01 3.17506E-01 1.79575E+00-4.42390E-01-6.58895E-01
 -1       861-6.21140E-01 2.69098E+01 4.17868E-01 1.50714E+00-1.49308E-01-8.22119E-01
 -1       862-3.46554E-02 2.14719E+01-4.14391E-02 1.80171E+00-1.38937E-01-6.42804E-01
 -1       863-9.58638E-02 1.65247E+01 1.59726E-01 6.21250E-01-7.55906E-02-4.19586E-01
 -1       864 1.57125E-01 3.78362E+01-1.10646E-01 6.64820E-01-1.08149E-01-3.81408E-01
 -1       865 6.70089E-02 3.19976E+01 1.98210E-01 2.05671E+00-1.62176E-01-8.19014E-01
 -1       866-1.65872E-01 2.77717E+01 2.23524E-01 1.21601E+00-4.56075E-02-8.19578E-01
 -1       867-3.97505E-02 2.18988E+01-5.09871E-02 1.74397E+00-8.57978E-02-8.00703E-01
 -1       868-2.57040E-01 1.66208E+01-2.08132E-01 1.00118E+00-1.50146E-01-9.92826E-01
 -1       869 4.00013E-02 3.71688E+01-1.61851E-01 7.04391E-01-4.67382E-02-1.45747E-01
 -1       870-1.15325E-01 3.22550E+01 5.73441E-03 1.67269E+00-2.16262E-01-2.53608E-01
 -1       871 9.57086E-03 2.73039E+01 1.65800E-02 1.56426E+00-5.73410E-01-4.98500E-01
 -1       872-3.19762E-02 2.27481E+01-1.27117E-01 1.51981E+00-7.23020E-02-3.96420E-01
 -1       873 7.48015E-02 1.83496E+01 3.75627E-01 8.24470E-01-1.07710E-01-2.75374E-01
 -1       874-4.11976E-02 3.70909E+01 3.74642E-02 7.93897E-01-1.13339E-01-1.88636E-01
 -1       875 5.11940E-02 3.21093E+01 1.72018E-01 1.76898E+00-2.11056E-01-4.96196E-01
 -1       876-1.06147E-01 2.78787E+01 5.36759E-02 1.75785E+00-3.89367E-01-5.05524E-01
 -1       877-2.17591E-01 2.34516E+01-1.94475E-01 1.48827E+00-5.39677E-02-4.04401E-01
 -1       878-1.95489E-01 1.91743E+01 5.04524E-02 1.35472E+00 1.43801E-02-1.93557E-01
 -1       879-2.22303E-01 3.62373E+01-1.26440E-01 5.38076E-01-1.45342E-01-2.22720E-01
 -1       880-4.73925E-02 3.21358E+01 1.69675E-01 1.61922E+00-2.56127E-01-5.33525E-01
 -1       881-1.15625E-01 2.78035E+01 4.16803E-03 1.70073E+00-2.34625E-01-5.07638E-01
 -1       882-1.40135E-01 2.40258E+01-2.39593E-01 1.45471E+00-1.52905E-01-4.52908E-01
 -1       883-7.69059E-03 1.95497E+01-3.16102E-02 1.54927E+00 4.67178E-02-4.64945E-01
 -1       884 4.71361E-02 3.51578E+01-1.41412E-01 9.01282E-01-2.69819E-01-3.07157E-01
 -1       885-3.39753E-02 3.17967E+01 8.12992E-02 1.75994E+00-3.22854E-01-5.14658E-01
 -1       886-4.08597E-02 2.83122E+01 9.26607E-02 1.67128E+00-4.11153E-01-5.06694E-01
 -1       887-1.13805E-01 2.45505E+01-1.90947E-01 1.51409E+00-1.49599E-01-4.74127E-01
 -1       888 7.62057E-02 2.09825E+01 1.47484E-01 1.14551E+00-1.16109E-01-2.95831E-01
 -1       889-4.86953E-03 3.50349E+01 5.06821E-02 8.37215E-01-2.56379E-01-3.01126E-01
 -1       890-6.39306E-02 3.17362E+01 1.23046E-01 1.88752E+00-2.43668E-01-6.00836E-01
 -1       891-1.90698E-01 2.80694E+01-6.23003E-02 1.55718E+00-1.98548E-01-4.22734E-01
 -1       892 7.69536E-03 2.50276E+01-1.23622E-01 1.55312E+00-1.85359E-01-3.52746E-01
 -1       893-2.49675E-01 2.12763E+01-1.10073E-01 1.49104E+00-8.81600E-02-3.16707E-01
 -1       894-8.40605E-02 3.48280E+01-1.70224E-01 8.76235E-01-1.23744E-01-5.60587E-02
 -1       895-1.37115E-01 3.18824E+01 4.96647E-03 1.56642E+00-2.56815E-01-1.55903E-01
 -1       896 2.34449E-01 2.87017E+01 1.31419E-01 1.55913E+00-4.26932E-01-2.56933E-01
 -1       897-2.27772E-02 2.57419E+01-9.01832E-02 1.44214E+00-9.14582E-02-2.42432E-01
 -1       898 3.68883E-02 2.19333E+01 5.22306E-02 9.84135E-01-3.45274E-02-6.24152E-02
 -1       899 2.38650E-01 3.43680E+01 8.48980E-02 1.05348E+00-1.76000E-01-1.84748E-01
 -1       900 1.37070E-02 3.16022E+01 1.00228E-01 1.64485E+00-2.27477E-01-3.01213E-01
 -1       901-5.00977E-02 2.91693E+01 6.76838E-02 1.67259E+00-3.11731E-01-3.09717E-01
 -1       902-1.27985E-01 2.64643E+01-1.27254E-01 1.49199E+00-1.16174E-01-2.48385E-01
 -1       903 1.19512E-01 2.37927E+01 8.86274E-02 1.16580E+00-9.56417E-02-1.52732E-01
 -1       904-6.96802E-02 3.37177E+01-6.12815E-02 1.03218E+00-2.33301E-01-1.75708E-01
 -1       905-6.36564E-02 3.15870E+01 1.12229E-01 1.57935E+00-2.35096E-01-3.12024E-01
 -1       906-3.83522E-02 2.91665E+01-9.42039E-03 1.62647E+00-1.98838E-01-2.88490E-01
 -1       907-4.61390E-02 2.70497E+01-1.31945E-01 1.42375E+00-1.40723E-01-2.34465E-01
 -1       908-6.63260E-02 2.38478E+01 1.56125E-02 9.75036E-01-1.16891E-01-4.73546E-02
 -1       909 2.60328E-02 3.39948E+01-8.78918E-03 1.05569E+00-2.01688E-01-1.73413E-01
 -1       910-1.08293E-02 3.16379E+01 1.62895E-01 1.60637E+00-3.17598E-01-1.92790E-01
 -1       911 6.80287E-02 2.95579E+01 9.41091E-02 1.58944E+00-2.82948E-01-1.85023E-01
 -1       912-1.22300E-01 2.75355E+01-1.67906E-01 1.44996E+00-9.92228E-02-1.90799E-01
 -1       913-7.58422E-02 2.53491E+01-3.72531E-02 9.96314E-01 5.27888E-02-1.67516E-01
 -1       914-1.35175E-01 3.29465E+01-2.86506E-02 1.17633E+00-2.62684E-01-1.12790E-01
 -1       915 1.16794E-03 3.13343E+01 6.49395E-02 1.53765E+00-2.89218E-01-1.17064E-01
 -1       916-1.28836E-01 2.96927E+01-7.51078E-02 1.72180E+00-2.22591E-01-1.82221E-01
 -1       917-8.40059E-03 2.83777E+01-8.74038E-02 1.50015E+00-9.11175E-02-8.12606E-02
 -1       918 6.69231E-02 2.65866E+01 5.57086E-03 1.09652E+00 5.61528E-03-1.01608E-01
 -1       919-7.25101E-02 3.31221E+01-2.56665E-02 1.01247E+00-2.21254E-01-8.50686E-03
 -1       920 6.42849E-02 3.14109E+01 8.46066E-02 1.49826E+00-3.27334E-01-1.40825E-01
 -1       921 9.62401E-02 3.00576E+01 3.03083E-02 1.77713E+00-1.43877E-01-1.81163E-01
 -1       922-7.43848E-02 2.86908E+01-2.24626E-02 1.41798E+00-9.63431E-02-1.24401E-01
 -1       923 2.62754E-02 2.68978E+01 1.42217E-02 9.26500E-01-4.16528E-02-1.53501E-02
 -1       924-1.93136E-03 3.20552E+01-6.35404E-02 1.10709E+00-2.35626E-01-1.27702E-01
 -1       925 4.52889E-02 3.12203E+01 9.95985E-02 1.56786E+00-2.90998E-01-1.40459E-01
 -1       926 6.04710E-02 3.03181E+01 4.87121E-02 1.62099E+00-2.20734E-01-1.44832E-01
 -1       927-3.13300E-02 2.94604E+01-4.05427E-02 1.46477E+00-1.05865E-01-1.16273E-01
 -1       928-1.18345E-02 2.85126E+01 7.16320E-02 9.85380E-01-1.48090E-02-1.01337E-01
 -1       929-8.01582E-02 3.17542E+01-2.78807E-02 1.13903E+00-1.70308E-01-6.37961E-02
 -1       930 3.51936E-02 3.11844E+01 6.56285E-02 1.51600E+00-2.70520E-01-7.59424E-02
 -1       931 8.26299E-03 3.04917E+01-2.31301E-02 1.62115E+00-1.72153E-01-9.03507E-02
 -1       932-3.97906E-04 3.00441E+01-1.33686E-02 1.46597E+00-1.37742E-01-5.23930E-02
 -1       933 6.64382E-02 2.94755E+01 1.00418E-01 9.60705E-01-1.03637E-01-7.54181E-02
 -1       934-1.12034E-01 3.15184E+01 2.69616E-02 1.03650E+00-2.37121E-01 4.22423E-03
 -1       935 5.36119E-02 3.11209E+01 1.07292E-01 1.54817E+00-2.83377E-01-1.21395E-02
 -1       936 3.67856E-02 3.08083E+01 5.04018E-02 1.60392E+00-2.16122E-01-1.76679E-02
 -1       937-3.26015E-02 3.05444E+01-4.48042E-02 1.51998E+00-1.17685E-01-1.47152E-02
 -1       938 4.02154E-02 3.01485E+01-1.71475E-02 1.00100E+00-5.38791E-02-2.66595E-02
 -1       939-6.52876E-02 3.07275E+01 3.51489E-03 1.08052E+00-2.64487E-01-3.73803E-02
 -1       940 2.71249E-02 3.08908E+01 3.99982E-02 1.51703E+00-2.48985E-01 1.04199E-02
 -1       941 1.91015E-02 3.10430E+01-2.67334E-03 1.63330E+00-1.27033E-01-1.88730E-02
 -1       942-3.64304E-02 3.13333E+01-5.57147E-02 1.49678E+00-9.28996E-02 1.04337E-02
 -1       943 4.76482E-02 3.13397E+01-5.86054E-02 9.93038E-01-2.10666E-02-2.37873E-02
 -1       944-1.11113E-02 3.05421E+01 6.23379E-02 1.01248E+00-2.95428E-01 5.30935E-02
 -1       945 9.73556E-02 3.09818E+01 3.87615E-02 1.55810E+00-2.11578E-01 1.07116E-01
 -1       946 1.38685E-02 3.13223E+01-1.65844E-02 1.65809E+00-1.45900E-01 4.84534E-02
 -1       947-1.72386E-02 3.18363E+01 3.87039E-02 1.53553E+00-9.25354E-02 1.32204E-01
 -1       948 1.32721E-02 3.21257E+01-1.52423E-02 8.96457E-01-6.57298E-03 4.81037E-02
 -1       949-4.96334E-02 3.00367E+01-4.01736E-02 1.05308E+00-2.19679E-01 4.70729E-02
 -1       950 4.52478E-02 3.08048E+01 5.90040E-02 1.54958E+00-2.07109E-01 9.77097E-02
 -1       951-7.92830E-03 3.15875E+01 1.14323E-01 1.65434E+00-1.07191E-01 1.06683E-01
 -1       952 2.18328E-02 3.23743E+01 5.02091E-02 1.54723E+00-8.21169E-02 9.38444E-02
 -1       953 5.53100E-02 3.30440E+01-1.98905E-02 1.01461E+00-1.04289E-02 6.02655E-02
 -1       954-6.02338E-03 2.96398E+01-3.47936E-02 1.10556E+00-1.75249E-01 6.15134E-02
 -1       955 1.23501E-02 3.05878E+01 3.92787E-03 1.52487E+00-1.33653E-01 1.00356E-01
 -1       956-4.15403E-02 3.18061E+01-3.24703E-02 1.72864E+00-1.19095E-01 1.19222E-01
 -1       957 6.73785E-02 3.30665E+01 1.48689E-02 1.48887E+00-3.19914E-02 9.00513E-02
 -1       958-3.06625E-02 3.46807E+01-3.48242E-02 8.86217E-01-3.59646E-02-7.49652E-03
 -1       959-1.07160E-02 2.90982E+01 2.29881E-02 1.05318E+00-1.42547E-01 7.66643E-02
 -1       960 5.00739E-02 3.07332E+01 1.17903E-02 1.57627E+00-1.83535E-01 1.20736E-01
 -1       961-3.02802E-02 3.22311E+01 5.93284E-02 1.68779E+00-5.78293E-02 1.46389E-01
 -1       962 5.47223E-02 3.34166E+01 6.52851E-02 1.54141E+00-3.30153E-02 1.10844E-01
 -1       963-3.21817E-02 3.50277E+01-2.76908E-02 1.03897E+00-2.73037E-03 1.00822E-01
 -1       964 1.41619E-02 2.87758E+01 1.26946E-01 8.87968E-01-1.45182E-01 5.28895E-02
 -1       965 5.61229E-02 3.04268E+01-1.39330E-03 1.54970E+00-2.15560E-01 1.37369E-01
 -1       966 1.23518E-02 3.22741E+01-1.64162E-02 1.53094E+00-1.37195E-01 1.20494E-01
 -1       967-3.15875E-02 3.42558E+01 6.57216E-02 1.51563E+00-5.64878E-02 1.13460E-01
 -1       968-5.19042E-02 3.63673E+01 2.16511E-03 8.29427E-01-9.27076E-02 4.65113E-02
 -1       969-5.17880E-03 2.84205E+01-7.37596E-02 8.63497E-01-1.74606E-01 2.20973E-01
 -1       970 3.70862E-02 3.04773E+01-7.28294E-02 1.67894E+00-1.90212E-01 4.24616E-01
 -1       971 2.13224E-02 3.25486E+01 2.43620E-02 1.38573E+00-1.24391E-01 2.55684E-01
 -1       972 1.87581E-02 3.46755E+01 7.29868E-02 1.64205E+00-6.24192E-02 3.51173E-01
 -1       973 3.18128E-02 3.69725E+01-1.28542E-01 9.35709E-01 2.76918E-03 1.56374E-01
 -1       974 1.56166E-01 2.76637E+01 6.78911E-02 8.92390E-01-1.47998E-01 1.59641E-01
 -1       975-1.73008E-02 3.01453E+01-6.51625E-02 1.57422E+00-1.98037E-01 3.42296E-01
 -1       976-2.20127E-01 3.26599E+01 2.09593E-01 1.51326E+00-5.72610E-02 3.80089E-01
 -1       977 2.77620E-02 3.49941E+01 1.50656E-01 1.52949E+00 8.48752E-02 3.27067E-01
 -1       978 7.03597E-03 3.73693E+01-1.53387E-01 9.36546E-01 2.95999E-02 1.76405E-01
 -1       979 9.86562E-02 2.60786E+01-1.04587E-01 8.33390E-01-6.46865E-02 8.72999E-02
 -1       980-8.74364E-02 2.98112E+01-1.16148E-01 1.46288E+00-1.43955E-01 3.71289E-01
 -1       981-1.78501E-01 3.28157E+01-8.99123E-04 1.46312E+00-3.97290E-02 3.83049E-01
 -1       982-2.44558E-02 3.55692E+01 2.79602E-02 1.31986E+00 2.25501E-01 3.35969E-01
 -1       983 5.68150E-02 3.93913E+01-4.16001E-02 8.30696E-01 1.59015E-02 6.80608E-02
 -1       984-7.20018E-02 2.64421E+01-1.72512E-02 1.11380E+00 1.12602E-01 2.38238E-01
 -1       985-1.07547E-01 2.97315E+01-9.04123E-02 1.59290E+00-6.26414E-02 3.23476E-01
 -1       986-2.47369E-01 3.27602E+01 6.87695E-06 1.47778E+00-7.87317E-03 3.25332E-01
 -1       987-1.89181E-01 3.56483E+01 2.73316E-03 1.35172E+00 2.31758E-01 2.51894E-01
 -1       988-1.72757E-02 3.85238E+01-1.58286E-01 1.02641E+00 1.71457E-01 2.02670E-01
 -1       989-1.91519E-01 2.52700E+01 2.58998E-02 9.74884E-01 1.27299E-01 3.28852E-01
 -1       990-1.60873E-01 2.94286E+01-7.11374E-02 1.49485E+00-1.30873E-02 3.39336E-01
 -1       991-2.97850E-01 3.29534E+01 1.01116E-02 1.12331E+00 8.47632E-02 3.62241E-01
 -1       992-3.13866E-01 3.63552E+01 1.28126E-01 1.14751E+00 3.36957E-01 3.10359E-01
 -1       993 6.73023E-02 3.96776E+01-5.67357E-03 4.89328E-01 3.72386E-01 1.77469E-01
 -1       994-3.69325E-01 2.59348E+01-6.69865E-02 8.74046E-01 2.63296E-02 6.76167E-01
 -1       995-1.23351E-01 2.92860E+01 1.45286E-02 1.50426E+00-7.06208E-02 7.72862E-01
 -1       996-2.73167E-01 3.30059E+01 1.33111E-01 7.46024E-01 1.54843E-02 5.87905E-01
 -1       997-1.82841E-01 3.65091E+01 2.62374E-01 1.07755E+00 2.57090E-01 5.91706E-01
 -1       998-2.48832E-01 4.08021E+01 1.32910E-01 5.10827E-01 8.67763E-02 8.46938E-02
 -1       999-3.09988E-01 2.50977E+01 2.25027E-01 6.90261E-01-2.06020E-01 5.43627E-01
 -1      1000 3.15543E-01 2.93859E+01 4.52324E-01 1.16582E+00-3.69997E-01 8.91439E-01
 -1      1001 5.05129E-02 3.32014E+01 4.08661E-01 8.99106E-01-2.23698E-01 7.82602E-01
 -1      1002 4.37754E-01 3.70171E+01 7.02141E-01 8.62334E-01-7.09807E-02 6.09907E-01
 -1      1003 3.58136E-01 4.01999E+01 1.57683E-01 5.52698E-01-7.40925E-02 3.19427E-01
 -1      1004 6.45429E-01 2.32294E+01 8.40666E-01-8.67403E-02-1.02887E+00 1.14808E-01
 -1      1005 2.52402E+00 3.06903E+01 1.67390E+00 1.03257E-01-1.76835E+00 7.18320E-01
 -1      1006 1.14629E+00 3.38223E+01 6.54469E-01 4.21168E-01-7.62278E-01 8.02007E-01
 -1      1007 1.79900E+00 3.81413E+01 1.47887E+00 8.37541E-01-1.00944E+00 6.79536E-01
 -1      1008 1.79577E+00 4.25993E+01 7.35266E-01 8.06844E-01-1.36058E+00 2.99666E-01
 -1      1009 5.11804E+00 2.69437E+01 5.04151E+00-2.03731E+00-3.56677E+00-2.43910E-01
 -1      1010 7.18451E+00 3.13712E+01 6.03712E+00-1.21140E+00-4.22915E+00 3.80935E-01
 -1      1011 7.37645E+00 3.59369E+01 5.29755E+00 4.84691E-01-4.24252E+00 1.92602E-01
 -1      1012 6.02609E+00 4.14582E+01 4.66440E+00 1.38239E+00-3.89121E+00 5.67499E-01
 -1      1013 6.46292E+00 4.60635E+01 5.90975E+00 2.42360E+00-4.76387E+00 6.46121E-01
 -1      1014 6.44674E+00 2.05443E+01-2.23569E+00-3.68723E+00 1.24961E+01 3.03582E+00
 -1      1015-5.80324E+00-8.92522E+01-3.96607E+01 4.47731E+01 5.50815E+01-5.24559E+00
 -1      1016-5.43895E+01-2.28892E+02-4.95278E+01 8.08804E+01-1.53742E+01-9.62772E+00
 -1      1017-8.65403E+00-2.35241E+01-1.79440E+01 9.13673E+00-3.79207E+01 2.49071E+00
 -1      1018-8.07353E-01 2.57645E+01-7.86626E+00-3.13240E+00-1.71295E+01-1.46122E-01
 -1      1019-1.06272E+00 3.77373E+01-5.68564E+00-3.22581E+00-8.10583E+00-2.36126E-01
 -1      1020-3.06228E+00 5.31004E+01 7.95572E-01-6.82789E+00-6.33090E+00-1.67869E+00
 -1      1021-4.37928E-01 5.77342E+00-3.72918E+00-7.42289E-01 1.39765E+01-1.88041E+00
 -1      1022-8.12995E+00-3.74107E+01 7.80042E-01 1.08990E+01 2.63778E+01-5.29247E+00
 -1      1023-2.11024E+01-8.72681E+01-9.65930E+00 2.41433E+01-1.91083E+01 8.53325E+00
 -1      1024-3.84556E+00-1.94037E+01-1.37754E+01 4.40453E+00-3.31722E+01 2.94930E+00
 -1      1025 8.22787E-01 9.22339E+00-5.14668E+00 8.31265E-02-1.95248E+01 2.30236E+00
 -1      1026 1.10152E+00 3.10725E+01-1.94737E+00-2.64113E+00-9.68676E+00 5.84138E-01
 -1      1027 1.75645E+00 4.30062E+01-7.03091E-01-3.99189E+00-7.49503E+00 4.09389E-01
 -1      1028-1.27589E+00 9.01486E+00 2.78014E+00 2.18757E+00 8.72281E+00-9.22892E-01
 -1      1029-9.89992E-01-1.44770E+01 6.94367E+00 7.25676E+00 1.37139E+01-1.09376E+00
 -1      1030-5.14758E+00-2.42616E+01 4.85159E+00 9.84124E+00-3.07388E+00 2.66832E+00
 -1      1031-3.28498E+00-2.06498E+01-8.27936E-01 4.80330E+00-2.02249E+01 3.91608E+00
 -1      1032-1.91563E-01 5.97451E+00-2.21511E-01 7.76713E-01-1.36004E+01 2.49757E+00
 -1      1033-2.73113E-01 1.95571E+01-9.74179E-01-1.16970E+00-1.08272E+01 4.20719E-01
 -1      1034 3.93773E-01 3.39524E+01-1.01925E+00-1.74007E+00-5.84810E+00 3.21726E-01
 -1      1035-7.78273E-01 2.30872E+00 1.26399E+00 2.99044E+00 6.60810E+00-4.94062E-01
 -1      1036-7.23184E-01-1.42356E+01 5.99013E+00 4.68474E+00 6.73520E+00 2.68047E-01
 -1      1037-2.64719E+00-1.93917E+01 3.32038E+00 6.37867E+00-1.85883E+00 1.08462E+00
 -1      1038-2.06863E-01-8.02792E+00 4.13930E+00 3.05296E+00-1.00698E+01 1.82362E+00
 -1      1039 1.59325E+00 6.60147E+00 1.75027E+00 3.26395E-01-1.04517E+01 8.51908E-01
 -1      1040 6.24054E-01 1.76033E+01 7.49913E-01-7.20488E-01-7.98836E+00 7.31393E-01
 -1      1041-2.06515E-01 2.27713E+01 2.16498E-01-3.55971E-01-6.24608E+00 8.82671E-02
 -1      1042-7.44598E-01 4.91687E+00 7.11337E-01 1.38520E+00 2.96807E+00-5.53709E-01
 -1      1043-4.27185E-01 4.15838E+00 2.84181E+00 1.91504E+00 4.61181E+00-7.28583E-01
 -1      1044-8.09964E-01-1.92860E-01 4.89544E+00 2.66442E+00-1.23399E-01 3.14201E-01
 -1      1045-1.68809E-01-3.55088E-01 6.07858E+00 1.96021E+00-5.27795E+00 8.02083E-01
 -1      1046-3.46614E-01 8.62893E+00 2.47913E+00 7.11711E-01-6.50388E+00 1.11374E+00
 -1      1047-9.37381E-01 1.77419E+01-3.08694E-02-3.28565E-01-5.86771E+00 8.05949E-01
 -1      1048-9.85122E-01 2.49024E+01-4.89500E-01-2.38687E-01-3.77756E+00 9.83599E-02
 -1      1049-1.12041E+00 5.19353E+00 5.30392E-01 9.67240E-01 1.56420E+00-1.02400E-01
 -1      1050-9.68612E-01 5.15985E+00 9.06765E-01 1.15126E+00 1.94318E+00-2.19973E-01
 -1      1051-1.29417E+00 4.30266E+00 2.29697E+00 1.75412E+00-5.27716E-01 1.96973E-02
 -1      1052-5.79954E-01 6.72435E+00 3.94193E+00 8.12345E-01-2.69464E+00 5.20761E-01
 -1      1053-2.59698E-01 1.23216E+01 1.84030E+00 3.25272E-01-3.74933E+00 4.61336E-01
 -1      1054-7.97914E-01 1.72069E+01 9.11003E-03-2.22722E-02-3.60510E+00 4.60434E-01
 -1      1055-6.94846E-01 1.94007E+01-6.46849E-01 9.57168E-03-3.02002E+00 1.35862E-01
 -1      1056-2.79675E-01 4.60171E+00 7.74200E-02 1.33125E-01 1.51096E+00 3.08666E-01
 -1      1057 4.77832E-01 5.41172E+00 8.47530E-01 6.44390E-01 6.68822E-01-1.01701E-01
 -1      1058 3.25255E-01 5.41624E+00 1.31703E+00 7.94029E-01-9.35471E-01 1.99715E-01
 -1      1059 3.60945E-01 7.68726E+00 2.04154E+00 6.85363E-01-1.75966E+00 1.72811E-01
 -1      1060 8.11988E-01 1.06448E+01 8.39227E-01 3.58089E-01-2.73882E+00 1.65125E-01
 -1      1061 1.81103E-01 1.56029E+01 4.50692E-01 1.14707E-01-2.40646E+00-2.96615E-02
 -1      1062-7.88891E-02 1.79200E+01-2.53896E-01-4.95976E-02-2.03032E+00 5.81020E-02
 -1      1063-2.84242E-02 8.47558E+00 7.27879E-02 7.35401E-01 5.61414E-01 6.44611E-02
 -1      1064-3.98888E-01 7.29117E+00 4.35783E-01 6.24101E-01 2.99029E-01 2.64086E-02
 -1      1065-1.46146E-01 1.01344E+01 8.71164E-01 5.93280E-01-6.37238E-01 1.50017E-01
 -1      1066-4.11117E-01 1.07613E+01 7.58647E-01 5.26738E-01-1.04459E+00 2.98241E-01
 -1      1067 4.00353E-01 1.41809E+01 8.35262E-01 5.62487E-01-1.67511E+00 3.05659E-01
 -1      1068 7.47967E-02 1.47700E+01 4.34727E-01 3.11790E-01-1.68498E+00-1.11992E-01
 -1      1069-1.23686E-01 1.86581E+01-2.50717E-01 6.46646E-01-1.25265E+00 3.19338E-02
 -1      1070 1.81327E-01 7.49453E+00-4.28699E-01 8.57853E-01-1.94311E-01-9.17761E-02
 -1      1071 3.98809E-01 8.08326E+00 1.09957E-01 9.08562E-01-4.00736E-02-1.72162E-01
 -1      1072-3.36470E-01 1.13009E+01 6.74470E-02 6.63133E-01-5.28370E-01 2.82266E-01
 -1      1073 5.71089E-02 1.04557E+01 1.93420E-01 1.12114E+00-8.01946E-01 2.61683E-01
 -1      1074 3.64538E-01 1.18233E+01 3.88128E-01 7.42454E-01-1.45519E+00-8.08296E-02
 -1      1075-7.53873E-02 1.74195E+01-7.31144E-02 4.89348E-01-1.17826E+00 2.93169E-01
 -1      1076-2.96794E-02 1.61174E+01-3.85046E-01 1.09440E+00-2.77126E-01 1.23641E-01
 -1      1077-1.86397E-04 9.54816E+00-5.76769E-01 7.84488E-01-1.04920E-01-5.52172E-02
 -1      1078-2.18643E-01 1.09909E+01-4.54924E-01 8.71116E-01-1.77417E-01-1.52611E-02
 -1      1079-4.73317E-01 1.20595E+01-3.13956E-01 2.69358E-01-8.11160E-02-8.58012E-02
 -1      1080-4.67617E-01 1.28022E+01 5.59599E-01 5.50894E-01-1.11398E+00-6.38850E-02
 -1      1081-2.21396E-01 1.61413E+01 2.10924E-02 7.42760E-01-1.02562E+00 3.35012E-02
 -1      1082-7.39389E-01 1.71532E+01-4.34327E-01 6.74896E-01-6.90356E-01-1.74040E-02
 -1      1083-5.87689E-01 1.77933E+01-2.64078E-01 8.66379E-01-7.84525E-01 2.06325E-01
 -1      1084-6.26408E-01 1.02873E+01-5.18441E-01 3.48265E-01 1.84864E-01-7.78281E-02
 -1      1085-5.04522E-01 1.17500E+01-7.73606E-01 6.49187E-01-1.98178E-01-5.46491E-02
 -1      1086-3.17039E-01 1.32683E+01-1.66307E-01 8.35783E-01-7.04523E-01-2.76964E-01
 -1      1087-2.65737E-01 1.50814E+01-4.11026E-02 7.02641E-01-6.83100E-01-8.54043E-02
 -1      1088-5.98906E-01 1.57744E+01-8.45508E-01 9.47231E-01-6.68053E-01 8.63463E-02
 -1      1089-7.14613E-01 1.57719E+01-2.55630E-01 4.40606E-01-8.58601E-01-5.36085E-01
 -1      1090-4.50316E-01 1.80193E+01-5.14106E-01 6.73470E-01-6.24818E-01 6.01394E-02
 -1      1091-3.59671E-01 1.05288E+01-9.20492E-01 8.69681E-02 4.24936E-01 2.69023E-01
 -1      1092 2.11482E-01 1.22388E+01-5.67819E-01 4.42975E-01-4.80659E-01-5.15377E-02
 -1      1093 3.69590E-01 1.27920E+01-5.34440E-01 4.11629E-01-6.49331E-01-7.53379E-02
 -1      1094 2.19505E-01 1.38949E+01-4.67061E-01 3.73851E-01-6.00457E-01-7.30342E-02
 -1      1095 3.72485E-01 1.46808E+01-7.21958E-01 2.92322E-01-6.40961E-01-1.58295E-01
 -1      1096 1.68959E-01 1.77155E+01-3.08983E-01 5.70668E-01-8.69156E-01-1.53863E-01
 -1      1097-5.38526E-02 1.78649E+01-6.27740E-01 1.70538E-01-1.00854E+00-2.00743E-01
 -1      1098 2.95668E-01 1.43480E+01-1.77777E-01 3.89642E-01 5.85238E-02 1.57176E-01
 -1      1099 2.00615E-03 1.41001E+01 3.35406E-02 6.29421E-01-5.64270E-01 1.40548E-01
 -1      1100 2.38695E-01 1.63132E+01-2.56337E-01 6.82074E-01-6.46233E-01-3.43212E-02
 -1      1101-4.68824E-02 1.61238E+01-8.12487E-02 4.73160E-01-6.38508E-01-1.08611E-01
 -1      1102 1.44473E-01 1.81198E+01-3.27063E-01 7.62717E-01-6.89173E-01-9.59658E-02
 -1      1103-3.36147E-01 1.80170E+01-4.82437E-01 6.29139E-01-6.67744E-01-1.55916E-01
 -1      1104 7.87109E-02 2.05228E+01-7.20886E-02 5.67443E-01-4.64415E-01-1.00858E-01
 -1      1105 2.45362E-01 1.29223E+01-5.63170E-02 8.18411E-01 1.63600E-01-1.16373E-01
 -1      1106 5.45223E-01 1.36120E+01-4.17134E-01 9.14486E-01-1.01099E-01-9.79507E-02
 -1      1107 4.61108E-01 1.46973E+01-5.27088E-01 9.08446E-01-6.21417E-01-6.19187E-02
 -1      1108 1.95686E-01 1.59628E+01-1.92509E-01 9.07747E-01-5.87611E-01-1.05836E-01
 -1      1109 3.37481E-01 1.66535E+01-5.51056E-01 9.95062E-01-6.36149E-01-1.21064E-01
 -1      1110 3.42501E-01 1.85052E+01-3.46078E-01 8.86942E-01-6.08960E-01 6.78095E-03
 -1      1111 1.94607E-01 1.87100E+01-5.40816E-01 8.81032E-01-5.33280E-01 7.47241E-02
 -1      1112-6.03657E-02 1.60555E+01-7.80521E-02 5.60839E-01 2.86588E-02 3.51119E-02
 -1      1113-3.26541E-02 1.64399E+01-2.88234E-01 6.16138E-01-1.35405E-01-9.40666E-02
 -1      1114 5.86765E-02 1.79785E+01-1.52123E-01 8.20114E-01-4.56263E-01-7.60515E-02
 -1      1115-4.50637E-01 1.80825E+01-1.19973E-01 6.12042E-01-6.01144E-01-9.58985E-02
 -1      1116-2.82873E-02 2.00302E+01-2.65215E-01 5.57053E-01-5.91717E-01-6.87276E-02
 -1      1117-2.46810E-01 2.02406E+01-5.38129E-01 7.87775E-01-7.50471E-01 7.02998E-02
 -1      1118-2.94910E-01 2.16089E+01-2.43237E-01 6.60156E-01-3.95994E-01 4.77549E-02
 -1      1119-2.10583E-01 1.70116E+01-2.36045E-01 5.75896E-01-1.51720E-01 5.12980E-02
 -1      1120-3.14212E-01 1.73086E+01-4.87227E-01 6.00596E-01-2.22316E-01-8.83183E-02
 -1      1121-4.30058E-01 1.82432E+01-4.03214E-01 8.48747E-01-6.26933E-01-1.45266E-01
 -1      1122-3.22501E-01 1.93807E+01-3.71755E-02 5.54852E-01-5.10828E-01-5.75870E-02
 -1      1123-2.93852E-01 2.06945E+01-4.06785E-01 7.69684E-01-5.48287E-01-7.32441E-02
 -1      1124-2.12425E-01 2.14510E+01-4.29873E-01 7.54382E-01-6.67581E-01-1.41489E-01
 -1      1125-3.50529E-01 2.20725E+01-5.26782E-01 6.24685E-01-4.98183E-01-1.24932E-02
 -1      1126 2.33174E-01 1.62882E+01-3.87196E-01 5.10663E-01-1.17433E-01-9.94458E-02
 -1      1127 3.57897E-01 1.80023E+01-2.93417E-01 5.24454E-01-1.65974E-01-9.64231E-02
 -1      1128 2.82418E-01 1.78842E+01-4.61217E-01 4.23747E-01-5.02874E-01-6.14079E-02
 -1      1129 1.49524E-01 1.86191E+01-3.05396E-01 4.20258E-01-4.80472E-01-5.03748E-02
 -1      1130 2.19699E-01 1.93579E+01-5.52124E-01 4.31360E-01-5.76912E-01-1.17775E-01
 -1      1131 2.27813E-01 1.96938E+01-4.78170E-01 5.08233E-01-6.00242E-01-4.26684E-01
 -1      1132-4.83106E-02 2.25141E+01-5.61579E-01 5.35012E-01-3.98821E-01-6.90860E-02
 -1      1133 9.11853E-02 1.92347E+01-8.89753E-02 6.02759E-01-2.03721E-01-5.45312E-03
 -1      1134-2.42476E-01 1.91290E+01-3.00437E-01 6.34178E-01-2.12818E-01-2.16070E-02
 -1      1135-1.56343E-02 2.06142E+01-2.55341E-01 5.73135E-01-4.57027E-01-4.39580E-02
 -1      1136-1.43391E-01 2.06790E+01-2.08642E-01 3.72649E-01-5.18672E-01-4.39579E-02
 -1      1137 1.11242E-01 2.26384E+01-1.86877E-01 4.77925E-01-6.83212E-01-1.81131E-02
 -1      1138 1.41724E-01 2.28352E+01-4.03920E-02 4.64225E-01-5.08590E-01-1.49421E-01
 -1      1139-8.09817E-02 2.37697E+01-2.30435E-01 6.73897E-01-4.85382E-01-5.75107E-02
 -1      1140-2.72373E-01 1.93260E+01-2.58528E-01 6.83186E-01-3.44440E-01 5.86106E-03
 -1      1141 1.37327E-01 2.00529E+01-3.63246E-01 6.91415E-01-1.47672E-01-3.61690E-02
 -1      1142-1.29885E-01 2.09818E+01-4.49294E-01 6.79501E-01-4.89812E-01 5.28201E-03
 -1      1143-1.05263E-01 2.19456E+01-2.78278E-01 5.76549E-01-4.06072E-01 1.11902E-02
 -1      1144-4.26671E-02 2.19514E+01-4.61764E-01 6.34635E-01-8.16418E-01-1.05044E-01
 -1      1145 2.42133E-01 2.24183E+01-2.35333E-01 8.22122E-01-6.38361E-01 2.61863E-02
 -1      1146 1.18898E-01 2.26277E+01-2.56707E-01 8.92188E-01-4.28912E-01-5.20638E-02
 -1      1147-1.49370E-01 2.09217E+01-2.00206E-01 7.38774E-01-1.46199E-01 1.33686E-03
 -1      1148-7.01903E-02 2.17689E+01-2.78331E-01 7.06903E-01-1.64822E-01 3.88769E-02
 -1      1149-4.84844E-02 2.28568E+01-2.53938E-01 6.76660E-01-4.40332E-01 2.31344E-02
 -1      1150-6.21407E-02 2.33943E+01 2.86140E-02 5.64238E-01-5.00756E-01-4.44946E-02
 -1      1151 1.22880E-02 2.37442E+01-7.79674E-02 5.12837E-01-7.38968E-01 3.18286E-02
 -1      1152-2.23646E-02 2.45311E+01-2.59118E-01 5.88045E-01-6.52338E-01-2.59088E-02
 -1      1153-4.31313E-02 2.50430E+01 4.03849E-02 7.36113E-01-3.92756E-01-2.35130E-02
 -1      1154-8.85929E-02 2.25741E+01-1.81370E-01 7.50309E-01-2.00305E-01 6.16728E-02
 -1      1155-1.68044E-01 2.28119E+01-3.34492E-01 7.53159E-01-1.44625E-01 8.07463E-02
 -1      1156-1.80035E-01 2.38146E+01-3.08951E-01 6.91814E-01-4.90192E-01-1.96133E-02
 -1      1157-3.06015E-01 2.35398E+01-1.71671E-01 6.16272E-01-6.23338E-01-3.89408E-02
 -1      1158-1.27786E-01 2.47101E+01-1.91866E-01 7.08648E-01-6.11521E-01-5.41980E-02
 -1      1159-2.77737E-01 2.50250E+01-3.32257E-01 6.44263E-01-6.48980E-01-1.00158E-01
 -1      1160-2.71652E-01 2.55917E+01-2.62559E-01 6.26884E-01-4.11762E-01-3.19593E-02
 -1      1161-2.23330E-01 2.26215E+01-3.74032E-01 6.58222E-01-1.66776E-01 1.27280E-01
 -1      1162 5.80008E-02 2.32920E+01-3.92453E-01 6.34814E-01-8.83970E-02-1.89509E-02
 -1      1163 1.57296E-01 2.34183E+01-3.40284E-01 6.51142E-01-4.17729E-01-2.26202E-02
 -1      1164 7.67944E-02 2.37590E+01-1.60973E-01 5.13968E-01-6.51611E-01-2.84938E-02
 -1      1165 1.60831E-01 2.43428E+01-2.65783E-01 5.57962E-01-6.43580E-01-9.23343E-02
 -1      1166-9.87882E-03 2.51591E+01-3.61495E-01 4.83532E-01-5.78885E-01-1.55455E-02
 -1      1167-1.30954E-01 2.59232E+01-2.61338E-01 4.98543E-01-3.93795E-01-1.04684E-01
 -1      1168-5.25104E-02 2.42264E+01-3.25456E-02 6.78590E-01-7.04062E-02-1.77922E-02
 -1      1169-2.15659E-02 2.50845E+01-1.66726E-01 6.09124E-01-1.62044E-01 2.04861E-02
 -1      1170-1.80528E-02 2.55650E+01-1.56330E-01 6.26222E-01-4.79810E-01-6.20876E-03
 -1      1171-1.06383E-01 2.55543E+01-7.25335E-02 4.88441E-01-6.05492E-01-1.77441E-02
 -1      1172-4.44029E-02 2.63447E+01-1.49876E-01 6.26886E-01-6.77277E-01-1.10593E-02
 -1      1173-9.66940E-02 2.67040E+01-1.43310E-01 4.75150E-01-5.71077E-01-1.92943E-02
 -1      1174-7.04269E-02 2.70727E+01-5.76151E-03 6.03230E-01-4.18559E-01-2.33768E-02
 -1      1175-7.76686E-02 2.59724E+01-1.05098E-01 6.50752E-01-1.03587E-01 1.97513E-02
 -1      1176-9.23636E-02 2.61563E+01-1.69859E-01 7.00227E-01-2.05099E-01 4.28196E-02
 -1      1177-1.12346E-01 2.67300E+01-1.76261E-01 6.71924E-01-5.20932E-01-1.22513E-02
 -1      1178-1.91217E-01 2.67288E+01-4.14630E-02 4.79616E-01-6.24848E-01-2.14480E-02
 -1      1179-8.50063E-02 2.73315E+01-2.07591E-01 6.67729E-01-5.95542E-01-2.23417E-02
 -1      1180-1.05578E-01 2.75048E+01-1.45462E-01 6.68914E-01-6.41566E-01-7.40319E-02
 -1      1181-3.00340E-02 2.80513E+01-6.47061E-02 6.34973E-01-3.83094E-01-4.43752E-02
 -1      1182 5.72811E-02 2.65185E+01-2.26634E-01 5.05257E-01 8.38364E-02-2.88934E-02
 -1      1183 3.52602E-02 2.69639E+01-8.33454E-02 6.64442E-01-1.59536E-01-5.61609E-02
 -1      1184-1.13669E-02 2.71688E+01-1.48468E-01 6.41981E-01-4.78636E-01-1.38319E-02
 -1      1185 1.68513E-02 2.72816E+01-3.78523E-02 4.12304E-01-6.00221E-01-1.19448E-02
 -1      1186 1.33631E-02 2.78081E+01-1.56759E-01 6.60833E-01-5.69046E-01-2.67248E-02
 -1      1187 9.68000E-02 2.83305E+01-3.09609E-02 7.20638E-01-6.15192E-01 1.32229E-02
 -1      1188-8.12589E-03 2.79589E+01-2.09686E-01 4.91975E-01-4.25997E-01-3.32432E-02
 -1      1189-9.04664E-03 2.82497E+01-1.81229E-02 6.01226E-01-2.19339E-02-2.29006E-02
 -1      1190 2.51132E-02 2.79748E+01-8.06221E-02 6.64564E-01-1.41611E-01-1.25789E-02
 -1      1191-3.59425E-02 2.84734E+01-6.83116E-02 6.94105E-01-5.02578E-01 1.96171E-03
 -1      1192-6.20555E-02 2.84502E+01-3.65803E-02 5.27775E-01-5.81974E-01-1.94369E-02
 -1      1193-7.53641E-02 2.89068E+01-1.11125E-01 7.09535E-01-5.99639E-01-1.93303E-02
 -1      1194-5.52683E-02 2.87352E+01-1.51549E-01 7.23308E-01-6.97495E-01-4.51425E-02
 -1      1195-8.27407E-03 2.91525E+01-2.94102E-02 6.41969E-01-4.63887E-01 4.31911E-03
 -1      1196 2.57422E-02 2.87882E+01-3.36835E-02 5.95136E-01-6.22903E-02 1.75344E-02
 -1      1197 4.80023E-02 2.88821E+01-1.22544E-01 6.14256E-01-1.43328E-01 4.89227E-03
 -1      1198 3.64503E-02 2.90637E+01-8.26411E-02 6.23319E-01-4.73056E-01-2.99877E-04
 -1      1199 2.26329E-02 2.92242E+01-5.58262E-02 5.38036E-01-5.67636E-01-1.80802E-02
 -1      1200 2.77162E-02 2.93758E+01-1.04396E-01 6.27404E-01-6.01098E-01-7.80170E-03
 -1      1201-6.04047E-02 2.96028E+01-1.01359E-01 6.05824E-01-6.61487E-01 9.43835E-04
 -1      1202-2.56091E-02 2.98886E+01-6.19631E-02 6.55499E-01-4.22000E-01-1.46207E-02
 -1      1203 9.68949E-02 3.01573E+01 5.64985E-02 6.34903E-01-6.51027E-02-5.08037E-03
 -1      1204 8.44429E-02 3.01703E+01 2.11416E-02 6.51144E-01-2.01574E-01 1.70733E-03
 -1      1205 6.59201E-02 3.03149E+01-2.47199E-03 6.77339E-01-4.76967E-01 9.86566E-04
 -1      1206 3.32997E-02 3.03400E+01-1.48974E-02 5.40487E-01-5.63919E-01 9.37739E-03
 -1      1207 1.78796E-02 3.04065E+01 1.02076E-03 6.92645E-01-6.13343E-01 1.42115E-02
 -1      1208-3.41932E-03 3.06071E+01 3.20449E-02 6.41491E-01-6.17576E-01 3.58722E-02
 -1      1209 6.93836E-02 3.06996E+01-2.05587E-02 6.96560E-01-4.44632E-01 2.31479E-02
 -1      1210-1.53357E-02 3.16617E+01-4.39929E-02 7.43141E-01-1.23398E-01 7.95418E-03
 -1      1211-5.14792E-02 3.11836E+01-6.00594E-03 6.72480E-01-1.86447E-01 3.61781E-02
 -1      1212-6.36113E-02 3.13898E+01-5.41820E-02 6.74795E-01-4.79028E-01 1.39508E-02
 -1      1213-4.55318E-02 3.13800E+01-3.12790E-02 5.43535E-01-5.80342E-01 1.10738E-02
 -1      1214-6.02597E-02 3.13617E+01-3.96493E-02 6.86276E-01-6.13765E-01 3.92394E-03
 -1      1215-6.83417E-02 3.11596E+01-1.96319E-02 7.17827E-01-6.16354E-01-3.45307E-02
 -1      1216-2.22663E-02 3.14624E+01-1.43103E-02 7.79569E-01-4.05013E-01-1.63462E-03
 -1      1217-1.16543E-01 3.22418E+01-7.88722E-02 6.81374E-01-2.85631E-02 3.35771E-02
 -1      1218-3.82154E-02 3.25214E+01-1.98843E-03 6.77131E-01-2.11153E-01 1.05765E-02
 -1      1219-3.12399E-02 3.23921E+01 1.63015E-02 5.70944E-01-5.35517E-01-2.05108E-04
 -1      1220-1.45367E-02 3.22143E+01 3.23481E-02 5.33707E-01-5.74796E-01 1.31242E-03
 -1      1221 9.19557E-03 3.22940E+01 1.46535E-02 6.44032E-01-6.44291E-01 3.23730E-02
 -1      1222-7.03173E-02 3.19045E+01 1.01778E-02 6.31200E-01-6.43749E-01-1.51165E-02
 -1      1223-2.28770E-02 3.18815E+01-1.23343E-01 6.91376E-01-4.71348E-01-3.21206E-02
 -1      1224-2.32789E-02 3.34268E+01 5.87861E-02 6.08708E-01-3.19269E-02-1.76388E-02
 -1      1225-7.89128E-03 3.37794E+01-2.02003E-03 5.68454E-01-2.18301E-01-2.03262E-02
 -1      1226-9.53030E-03 3.31850E+01 5.47878E-02 5.86105E-01-4.74859E-01 5.20999E-03
 -1      1227-2.38626E-02 3.32737E+01 7.52896E-05 4.81000E-01-5.89392E-01 9.42990E-03
 -1      1228-3.51793E-02 3.28608E+01 2.98841E-02 5.90206E-01-6.27420E-01 1.87243E-06
 -1      1229 1.35717E-02 3.28214E+01-2.01409E-02 5.53087E-01-6.22258E-01 1.28180E-02
 -1      1230-1.79295E-02 3.26232E+01 3.68408E-02 6.47724E-01-4.42596E-01 2.36756E-03
 -1      1231-1.65601E-02 3.48376E+01 1.69260E-01 5.68023E-01 2.91056E-02-7.00013E-02
 -1      1232-5.12518E-02 3.47732E+01 5.72622E-02 5.87298E-01-1.80592E-01 9.82059E-03
 -1      1233-1.11850E-01 3.46722E+01 1.62468E-01 5.67860E-01-4.52819E-01 1.65302E-02
 -1      1234-3.37607E-02 3.47739E+01 1.06116E-02 4.49865E-01-5.89016E-01 2.56808E-02
 -1      1235-9.34648E-02 3.42498E+01 1.38559E-01 5.65376E-01-6.56355E-01 2.13351E-02
 -1      1236 1.11013E-01 3.38852E+01 1.31354E-01 5.62294E-01-6.60415E-01-5.09916E-03
 -1      1237-4.97038E-02 3.36184E+01 1.73059E-01 6.25239E-01-4.77052E-01-3.30083E-03
 -1      1238 1.48884E-01 3.56555E+01 1.59858E-01 5.58119E-01-2.20361E-02-1.53529E-02
 -1      1239 1.79876E-01 3.53770E+01 1.51588E-01 6.66818E-01-1.69812E-01 1.54757E-02
 -1      1240 1.35683E-01 3.51011E+01 1.17798E-01 6.63945E-01-4.10663E-01 3.53320E-02
 -1      1241 1.61656E-01 3.53219E+01-5.48438E-02 5.66973E-01-5.57537E-01 6.56382E-02
 -1      1242 1.41462E-01 3.46415E+01 1.26759E-01 6.79385E-01-6.10815E-01 4.27049E-02
 -1      1243 1.65942E-01 3.45729E+01 1.09286E-01 7.10191E-01-7.26960E-01 8.77785E-02
 -1      1244 1.90161E-01 3.42257E+01 1.43808E-01 7.47774E-01-4.19126E-01 5.36566E-03
 -1      1245 7.98017E-02 3.68949E+01 1.82703E-01 5.59670E-01-4.63880E-02 6.88040E-02
 -1      1246 8.69069E-02 3.67146E+01 1.99084E-01 6.24956E-01-1.09824E-01 5.00391E-02
 -1      1247 7.17762E-02 3.63816E+01 1.58238E-02 6.36427E-01-3.37428E-01 4.91897E-02
 -1      1248 9.79173E-02 3.61371E+01-6.43964E-02 5.54737E-01-5.79695E-01 8.51922E-02
 -1      1249-2.95466E-02 3.56146E+01 4.18130E-02 7.14106E-01-6.57564E-01 3.64079E-02
 -1      1250-4.07053E-02 3.50175E+01-4.01024E-02 7.35715E-01-6.97746E-01 2.19101E-02
 -1      1251-4.78164E-02 3.45341E+01-7.69295E-02 8.58979E-01-4.66784E-01 4.62144E-02
 -1      1252 6.32602E-02 3.81032E+01 1.29477E-01 6.43458E-01 3.65122E-02 1.17221E-01
 -1      1253-1.67379E-01 3.81585E+01 2.62827E-02 6.84017E-01-1.21904E-01 4.17677E-02
 -1      1254 8.49429E-02 3.72516E+01 7.85089E-02 5.82195E-01-4.54857E-01-4.42352E-02
 -1      1255-1.11915E-01 3.71641E+01 8.10748E-02 7.06296E-01-4.82770E-01-2.97824E-02
 -1      1256-2.07625E-01 3.70534E+01 7.40511E-02 7.52871E-01-7.20020E-01 2.52231E-02
 -1      1257-1.44248E-02 3.62672E+01 1.40310E-01 7.13901E-01-6.73337E-01 3.67670E-02
 -1      1258-1.64814E-01 3.64312E+01-2.88604E-03 7.65897E-01-5.17455E-01 2.27744E-02
 -1      1259-9.51627E-02 3.89117E+01 7.96711E-02 5.46159E-01 9.15098E-02-6.30646E-03
 -1      1260 1.55209E-01 3.92983E+01 1.45114E-01 5.16457E-01-9.61098E-02 9.35994E-03
 -1      1261 7.09477E-03 3.82429E+01 1.45201E-01 5.84101E-01-3.96111E-01-6.70476E-03
 -1      1262 1.10744E-01 3.80995E+01 1.07862E-01 4.49856E-01-4.57742E-01-5.06583E-02
 -1      1263-1.47698E-01 3.71348E+01 5.63391E-02 6.34506E-01-6.66725E-01 2.30392E-02
 -1      1264-4.21824E-02 3.68711E+01 5.49802E-02 4.68955E-01-6.75076E-01 5.88799E-02
 -1      1265-2.46251E-01 3.54827E+01 4.99629E-02 6.77964E-01-6.43949E-01 1.10257E-01
 -1      1266 1.07578E-01 4.09136E+01 2.89727E-01 2.56436E-01 2.32778E-01-1.10426E-01
 -1      1267-3.00760E-01 4.00933E+01 1.82419E-01 5.53639E-01-6.03990E-02 5.23670E-02
 -1      1268-2.16578E-01 4.05505E+01 2.48387E-01 3.39752E-01-4.01762E-01 1.27968E-02
 -1      1269-1.52638E-01 3.97989E+01 1.84762E-01 3.25838E-01-5.09993E-01 5.78189E-03
 -1      1270-3.09597E-01 3.91785E+01 3.09773E-01 5.01327E-01-7.26398E-01 4.46831E-02
 -1      1271-7.06887E-02 3.80945E+01 2.57911E-01 3.41607E-01-7.77846E-01 1.22094E-02
 -1      1272-2.92604E-02 3.71454E+01 4.14178E-01 3.86535E-01-7.24682E-01 1.61584E-01
 -1      1273 3.21323E-01 4.06607E+01 2.32204E-01 4.91121E-01 1.16102E-01-3.81817E-02
 -1      1274 3.39505E-01 4.09687E+01 4.69291E-01 4.18254E-01 6.92642E-02 2.41171E-02
 -1      1275 2.89038E-01 4.07422E+01 2.91377E-01 6.43173E-01-4.03285E-01 8.81054E-02
 -1      1276 2.63737E-01 4.01111E+01 8.13805E-02 4.35327E-01-5.36217E-01 2.25215E-02
 -1      1277 1.41035E-01 3.88693E+01 3.14119E-01 5.90955E-01-6.74105E-01 6.74481E-02
 -1      1278 3.78424E-01 3.82934E+01 5.45793E-01 4.95565E-01-7.93021E-01-7.65857E-03
 -1      1279 2.04664E-01 3.71386E+01 3.98249E-01 3.70869E-01-6.01938E-01 1.73548E-02
 -1      1280 8.47964E-03 4.19759E+01 3.04795E-01 3.45014E-01 1.82200E-01-5.27156E-02
 -1      1281-7.65724E-03 4.13444E+01 4.70565E-01 4.72845E-01 1.17705E-02-2.04652E-02
 -1      1282-3.12009E-02 4.09792E+01 5.40092E-01 5.02736E-01-4.46584E-01 3.98591E-02
 -1      1283 2.11810E-01 4.10885E+01 3.17880E-01 3.49692E-01-5.46760E-01 1.15398E-01
 -1      1284-6.54989E-02 3.98954E+01 6.67377E-01 5.16846E-01-6.50198E-01 9.95821E-02
 -1      1285-1.96031E-02 3.82613E+01 5.34152E-01 4.99157E-01-7.69289E-01 6.60346E-02
 -1      1286 1.19185E-01 3.76220E+01 8.07660E-02 3.78732E-01-6.58476E-01 5.54275E-02
 -1      1287-4.68708E-01 4.33565E+01 4.60251E-01 3.31006E-01-3.29534E-03-1.50265E-01
 -1      1288-3.76975E-01 4.36225E+01 8.59402E-01 5.02664E-01-2.59667E-01-4.70165E-02
 -1      1289-2.35500E-01 4.34246E+01 1.23033E+00 4.96340E-01-4.94579E-01-2.32194E-02
 -1      1290-1.01415E-01 4.28037E+01 1.28205E+00 4.28562E-01-6.49362E-01 4.80764E-02
 -1      1291-2.77446E-01 4.19944E+01 1.60278E+00 4.17408E-01-5.41275E-01 1.04970E-01
 -1      1292-3.11852E-01 4.06835E+01 9.19513E-01 5.53214E-01-5.51940E-01 1.90867E-01
 -1      1293-1.01322E-01 3.97843E+01 5.09755E-01 3.79045E-01-4.27284E-01 3.57846E-01
 -1      1294 2.98123E-01 4.29488E+01 1.10435E+00 4.67314E-01-5.46504E-01 1.09213E-03
 -1      1295 1.24153E-01 4.30326E+01 1.19312E+00 3.97002E-01-6.13850E-01-1.33406E-01
 -1      1296 4.78513E-01 4.26577E+01 2.58152E+00 6.32821E-01-8.21979E-01-9.80362E-03
 -1      1297 5.87942E-01 4.24803E+01 3.17969E+00 4.34073E-01-4.92957E-01 9.65717E-02
 -1      1298 1.13227E-01 4.07022E+01 2.39351E+00 3.84760E-01-1.94240E-01 1.40180E-01
 -1      1299 1.55741E-01 3.95733E+01 1.73121E+00 3.34680E-01 1.89903E-01 2.50549E-01
 -1      1300-5.52277E-02 3.77585E+01 4.48532E-01 1.66223E-01 8.41935E-02 2.23243E-01
 -1      1301 1.77041E+00 4.52127E+01 2.09889E+00 1.08024E+00-1.83366E+00 4.19350E-01
 -1      1302 1.45320E+00 4.55055E+01 3.38697E+00 1.18243E+00-1.75109E+00 4.38108E-01
 -1      1303 1.46998E+00 4.41049E+01 5.68605E+00 1.59820E+00-1.53478E+00-1.02645E-01
 -1      1304 2.00685E+00 4.38790E+01 6.99324E+00 1.80254E+00-2.11511E-01 3.42027E-01
 -1      1305 7.81113E-01 4.31306E+01 5.00819E+00 1.04412E+00 4.48734E-01 2.13916E-01
 -1      1306 1.00356E+00 4.13465E+01 4.39388E+00 1.04101E+00 1.60692E+00 1.63475E-01
 -1      1307-2.10610E-01 4.00177E+01 1.64034E+00 4.21318E-01 1.05514E+00 2.34542E-01
 -1      1308 9.30063E+00 5.05249E+01 8.34232E+00 5.45567E+00-5.77666E+00-7.14299E-01
 -1      1309 9.71862E+00 4.66561E+01 1.21534E+01 5.53562E+00-3.24817E+00 3.37103E-01
 -1      1310 8.47052E+00 4.45914E+01 1.19813E+01 4.99716E+00-1.78084E+00 1.10668E-01
 -1      1311 6.36042E+00 4.37611E+01 1.03794E+01 3.95097E+00 1.84253E-01 1.82214E-01
 -1      1312 7.48132E+00 4.34243E+01 1.11129E+01 4.47488E+00 1.44871E+00 7.44082E-01
 -1      1313 4.08619E+00 4.27734E+01 7.91542E+00 3.45809E+00 2.20018E+00-3.09130E-01
 -1      1314 4.28465E+00 4.15676E+01 6.80693E+00 3.00260E+00 3.39173E+00-4.61750E-01
 -1      1315 1.22742E+01 3.99819E+01 1.30764E+01 4.44918E+00 5.33292E+00-3.53673E-01
 -1      1316 1.34633E+01 3.51579E+01 1.20905E+01 2.87075E+00 5.35494E+00 1.76751E-01
 -1      1317 8.64585E+00 2.88720E+01 7.81648E+00 3.68286E-01 4.03628E+00-1.95010E-01
 -1      1318 9.67129E+00 2.46837E+01 8.98649E+00-7.01917E-01 3.62331E+00 1.74999E-01
 -1      1319 4.96452E+00 1.89583E+01 5.26649E+00-1.52196E+00 1.92733E+00 9.04326E-01
 -1      1320 1.32460E+01 3.86676E+01 1.36470E+01 4.89418E+00 3.17456E+00-4.42224E-02
 -1      1321 1.18996E+01 3.39277E+01 1.19952E+01 3.06996E+00 2.10989E+00 1.31467E-01
 -1      1322 1.12028E+01 2.99171E+01 1.13898E+01 1.69274E+00 2.26993E+00-1.17674E-01
 -1      1323 9.17629E+00 2.53047E+01 9.08363E+00 3.70014E-01 1.71550E+00 1.54781E-01
 -1      1324 6.20363E+00 2.07479E+01 7.42155E+00-1.68038E+00 1.84949E+00-2.28002E-01
 -1      1325 1.49265E+01 4.10935E+01 1.61785E+01 5.57396E+00 2.14610E+00 9.13770E-01
 -1      1326 1.35903E+01 3.35020E+01 1.37712E+01 2.98725E+00 1.11595E+00 3.56525E-01
 -1      1327 1.04936E+01 2.91249E+01 1.10992E+01 1.54207E+00 1.14114E+00 1.58202E-01
 -1      1328 8.81391E+00 2.42535E+01 9.52452E+00-2.11783E-01 5.06202E-01 7.42705E-02
 -1      1329 5.93060E+00 1.84377E+01 6.44581E+00-2.39318E+00 7.99903E-01 7.52945E-02
 -1      1330 1.24296E+01 4.20733E+01 1.44533E+01 5.56671E+00-1.51170E-01 1.98021E-01
 -1      1331 1.28228E+01 3.53329E+01 1.27881E+01 3.46800E+00-5.80931E-02 2.01039E-01
 -1      1332 9.65702E+00 2.97315E+01 1.01390E+01 1.38796E+00-3.78653E-01-3.63752E-02
 -1      1333 8.22093E+00 2.43689E+01 8.51567E+00-2.79819E-01-3.53757E-01 1.47866E-02
 -1      1334 6.35265E+00 1.98075E+01 7.04954E+00-1.96829E+00-2.03427E-01 1.59841E-01
 -1      1335 1.28578E+01 4.23623E+01 1.47771E+01 5.58694E+00-2.40684E+00 9.27246E-02
 -1      1336 1.48156E+01 3.72137E+01 1.51956E+01 3.73079E+00-2.12065E+00-8.25969E-01
 -1      1337 1.16703E+01 3.18388E+01 1.30527E+01 1.71070E+00-1.52762E+00 3.99281E-02
 -1      1338 1.19482E+01 2.78791E+01 1.19482E+01 6.46574E-01-1.43179E+00 0.00000E+00
 -1      1339 6.17074E+00 2.21585E+01 7.38446E+00-1.74896E+00-1.23952E+00 1.22868E-01
 -1      1340 1.28977E+01 4.40811E+01 1.56643E+01 5.70210E+00-4.01733E+00-3.35627E-02
 -1      1341 1.43779E+01 3.80268E+01 1.40627E+01 3.51511E+00-2.87556E+00 5.85492E-02
 -1      1342 9.81511E+00 3.13142E+01 1.03410E+01 9.38308E-01-2.75596E+00 5.33555E-02
 -1      1343 1.18001E+01 2.87726E+01 1.11029E+01 3.52822E-01-2.66662E+00-3.42419E-01
 -1      1344 6.10370E+00 2.29564E+01 7.53448E+00-2.68861E+00-2.41338E+00 8.06823E-02
 -1      1345 1.38233E+01 4.65907E+01 1.41358E+01 5.17224E+00-6.39806E+00 1.06064E-01
 -1      1346 1.48835E+01 3.93220E+01 1.40000E+01 2.59205E+00-5.71671E+00-2.31465E-01
 -1      1347 1.09314E+01 3.43641E+01 9.75014E+00 2.25040E-01-5.09126E+00-3.52255E-01
 -1      1348 1.21066E+01 3.14105E+01 1.11632E+01-1.25733E+00-4.89231E+00-3.10063E-02
 -1      1349 8.36030E+00 2.65593E+01 8.25788E+00-2.35720E+00-4.08455E+00-5.35469E-01
 -1      1350-4.23900E-04 3.09937E+01-3.66480E-03 1.27081E+00-4.51745E-01-1.95296E-03
 -1      1351-1.88336E-01 3.03363E+01 2.41202E-03 1.35957E+00-6.58322E-01-8.86806E-02
 -1      1352 5.49723E-02 2.28753E+01-2.25629E-01 1.07004E+00-5.64010E-01 1.70740E-01
 -1      1353-1.47359E+00 3.29843E+01 1.05945E+00 8.82917E-01 3.17385E+00-1.44591E+00
 -1      1354-3.16715E-02 3.10442E+01-2.25929E-02 1.20394E+00-5.57531E-01 3.90709E-02
 -1      1355-4.43494E-01 4.52551E+01 1.01285E+00 7.82019E-01 1.52901E+00-8.74470E-02
 -1      1356 1.10818E-01 2.04191E+01-1.14684E-01 9.98517E-01-1.54688E-01-1.06453E-01
 -1      1357 3.88624E-02 2.46150E+01-2.74701E-01 9.73796E-01-6.26438E-01-3.74225E-02
 -1      1358-7.91557E-03 2.97766E+01-3.20101E-02 7.75041E-01-5.54277E-01-2.56879E-03
 -1      1359 1.91664E-02 3.30464E+01-5.27547E-02 1.55812E+00-2.66525E-01 1.60478E-01
 -1      1360-1.72015E-01 4.53235E+01 2.00102E-01 8.41424E-01-1.08806E-02 1.76895E-01
 -1      1361 1.44796E-01 2.38562E+01-3.00445E+00-1.29423E+00-9.93336E+00 2.09316E+00
 -1      1362-4.25459E-02 3.24268E+01 3.78625E-02 1.04880E+00-3.39458E-01-2.06286E-02
 -1      1363 1.65610E-02 3.02063E+01 1.87740E-02 1.55371E+00-2.33746E-01-7.75509E-02
 -1      1364-2.75349E-02 3.11505E+01-1.25329E-01 1.23925E+00-5.15821E-01 5.95276E-03
 -1      1365-8.25374E-02 3.92758E+01 1.48918E-01 7.05084E-01-5.07161E-01-3.12601E-03
 -1      1366-2.15813E-02 3.18339E+01 2.48467E-02 1.01952E+00-3.43450E-01-5.63881E-03
 -1      1367 2.89084E-02 3.90437E+01 1.70875E-01 7.67237E-01 1.09226E-01 5.24461E-02
 -1      1368-3.14979E-01 2.80617E+01 1.84740E-01 1.33529E+00-3.81483E-01-3.67959E-01
 -1      1369-1.57560E-01 4.33681E+01 1.09292E+00 3.91576E-01 3.35212E+00-4.08115E-01
 -1      1370 3.22723E-01 1.90444E+01-5.78457E-02 9.53142E-01-4.00505E-01 1.46941E-02
 -1      1371-1.60426E-02 2.67752E+01-7.04482E-02 9.38196E-01-1.87103E-01-2.19478E-02
 -1      1372 6.83518E-02 2.84503E+01-7.67834E-02 8.82821E-01-5.61511E-01-3.80342E-02
 -1      1373-7.64759E-01 2.76666E+01 2.74640E+00 2.05811E+00 1.28733E+00 2.68295E-01
 -1      1374-1.00454E-02 3.25558E+01 1.49296E-02 1.25567E+00-4.49988E-01 7.24336E-03
 -1      1375-1.43552E-01 2.49617E+01-3.95226E-01 1.02874E+00-5.75488E-01-1.36979E-02
 -1      1376-1.06851E-01 4.27287E+01 1.78002E-01 8.02653E-01-2.85592E-01 2.51006E-02
 -1      1377-1.64502E+00 2.49431E+00 3.89654E+00 3.44625E+00-6.68658E+00 1.87329E+00
 -1      1378-5.55944E-03 3.36247E+01 7.72132E-02 8.80630E-01-5.56314E-01 3.02640E-02
 -1      1379-1.02026E-01 3.61044E+01-1.60297E-02 8.61405E-01-2.70162E-01-1.68797E-02
 -1      1380 1.51546E-03 3.08149E+01 3.09157E-03 1.25866E+00-4.56849E-01-9.24907E-04
 -1      1381-1.18452E-01 3.02839E+01-1.10753E-01 1.29920E+00-5.95410E-01-3.52830E-02
 -1      1382 4.09962E-01 2.35962E+01 9.86445E-02 9.06558E-01-6.18937E-01 4.41547E-01
 -1      1383 6.09625E-01 4.15750E+01 7.05589E-01-2.91611E+00 3.91100E+00-2.10595E+00
 -1      1384-9.98569E-03 3.10697E+01 5.64680E-02 1.22312E+00-5.65447E-01 5.59228E-02
 -1      1385-6.92521E-01 4.91207E+01 1.26139E+00-5.88171E-02 2.95468E+00-3.61849E-01
 -1      1386-2.34586E-01 1.90948E+01-2.64671E-01 1.00972E+00-1.14018E-01-1.57572E-02
 -1      1387 7.37446E-02 2.60188E+01-1.99789E-01 8.81775E-01-4.35423E-01 2.03525E-02
 -1      1388 4.61966E-02 2.85301E+01-1.49727E-02 7.67797E-01-5.67251E-01-6.00180E-03
 -1      1389 2.64845E-02 3.36165E+01-4.69800E-02 1.49816E+00-2.94925E-01 2.32318E-01
 -1      1390-1.35886E-03 4.71949E+01 3.75747E-01 8.93219E-01-6.75415E-02 3.04207E-02
 -1      1391-2.67823E-02 3.17461E+01-7.02787E-03 1.03347E+00-3.52383E-01-2.42402E-02
 -1      1392-8.72494E-03 2.98977E+01 2.23740E-02 1.52836E+00-2.31630E-01-3.63377E-02
 -1      1393 3.82294E-03 3.10935E+01-7.34847E-02 1.21626E+00-5.17618E-01 4.17258E-04
 -1      1394 1.64986E-01 3.97341E+01 9.92838E-02 7.70869E-01-5.28790E-01 4.06963E-02
 -1      1395-4.73977E-02 3.26737E+01 1.09594E-02 9.90165E-01-3.65634E-01-1.00124E-03
 -1      1396-8.86775E-02 3.80052E+01 1.19713E-02 8.91584E-01 6.68226E-02 6.29831E-02
 -1      1397-2.72705E-01 2.85884E+01 5.34608E-02 1.46620E+00-4.74476E-01-1.52831E-01
 -1      1398 2.07137E-01 1.78439E+01-1.35770E-01 9.18394E-01-6.22905E-01-2.81686E-03
 -1      1399 4.82950E-02 2.82706E+01-2.98000E-02 1.00291E+00-1.20426E-01-1.88209E-02
 -1      1400 9.95904E-03 2.71463E+01-1.28172E-01 8.44645E-01-5.32063E-01-2.15351E-02
 -1      1401-2.14020E+00 2.68564E+01 4.22318E+00 2.63872E+00 2.46214E+00-2.41476E-01
 -1      1402-9.06830E-02 3.26019E+01 1.11730E-03 1.26650E+00-4.30282E-01 1.33979E-02
 -1      1403 4.14694E-02 2.54424E+01-3.98376E-01 8.34151E-01-5.29807E-01 2.18124E-02
 -1      1404-7.15282E-02 4.42636E+01 1.61122E-01 9.27175E-01-4.06064E-01 2.64238E-02
 -1      1405-3.77767E+00-7.86308E+00-3.37530E+00 7.33713E+00-1.52436E+01 4.69258E+00
 -1      1406 1.76991E-03 3.48791E+01 8.93473E-02 8.43786E-01-5.28132E-01 4.00050E-02
 -1      1407 2.00660E-02 3.46274E+01 2.09352E-02 8.90761E-01-3.24105E-01 1.52276E-02
 -1      1408 9.22230E-04 3.06370E+01 1.19693E-02 1.25970E+00-4.61580E-01-1.22493E-03
 -1      1409-4.67211E-02 3.03632E+01-1.20937E-01 1.28781E+00-5.30923E-01-9.60296E-03
 -1      1410 1.53397E-01 2.39596E+01-1.05140E-02 5.85504E-01-1.65095E+00 3.93817E-01
 -1      1411-1.47103E-02 3.10335E+01 2.66418E-01 1.16104E+00-5.32821E-01 1.47540E-01
 -1      1412 9.18555E-01 5.15229E+01 3.29330E-01-1.18316E+00 3.77727E+00-1.01455E+00
 -1      1413 1.97775E-01 1.77074E+01-5.66925E-02 8.79974E-01-1.41817E-01-2.11952E-01
 -1      1414 9.29616E-03 2.76150E+01-1.26992E-01 9.07621E-01-4.16780E-01 3.02688E-02
 -1      1415-1.40920E-02 2.76779E+01-6.62182E-02 7.83592E-01-5.71567E-01-9.07753E-03
 -1      1416 1.40930E-01 3.40788E+01 2.06837E-03 1.46421E+00-2.43510E-01 1.34665E-01
 -1      1417-4.56717E-02 4.80994E+01 4.76905E-01 7.98867E-01-1.60513E-01 2.39507E-01
 -1      1418 1.29461E-02 3.09958E+01-1.36930E-02 1.01959E+00-3.59114E-01 8.00739E-03
 -1      1419 8.20757E-03 2.95494E+01 5.26805E-02 1.50067E+00-2.73271E-01-1.17871E-01
 -1      1420 2.27213E-03 3.10502E+01-3.53721E-02 1.19074E+00-5.33088E-01 5.60485E-04
 -1      1421-1.41959E-01 4.17507E+01 1.57256E-01 7.51915E-01-5.52606E-01 7.96023E-02
 -1      1422-7.13220E-02 3.33170E+01 5.93495E-02 1.01319E+00-3.55896E-01-3.28924E-02
 -1      1423-8.80345E-02 3.64819E+01 1.99978E-03 9.55786E-01-1.11131E-01 1.08737E-01
 -1      1424-6.00172E-02 2.90146E+01 5.73945E-03 1.49939E+00-3.83239E-01-1.99811E-01
 -1      1425 1.16354E-01 1.73784E+01-2.31674E-02 9.80439E-01-4.07019E-01-5.86539E-02
 -1      1426 2.46695E-02 2.98038E+01 3.79291E-03 9.50270E-01-1.42508E-01-2.66366E-02
 -1      1427 4.24042E-02 2.67758E+01-1.12314E-01 8.62229E-01-5.25566E-01-3.08116E-02
 -1      1428-3.94270E+00 2.59994E+01 1.51979E+00 2.10336E+00 3.00519E+00-1.16662E+00
 -1      1429-7.06215E-02 3.29256E+01 7.49566E-02 1.16601E+00-4.55260E-01 1.98644E-02
 -1      1430 2.72739E-02 2.65525E+01-2.73846E-01 7.94189E-01-5.41109E-01-2.34962E-02
 -1      1431 8.12785E-03 4.42851E+01 4.05396E-01 8.52691E-01-3.30715E-01 8.32196E-02
 -1      1432-1.18087E-01 3.52260E+01 7.72853E-02 9.04931E-01-4.99305E-01 5.39125E-02
 -1      1433-4.13638E-02 3.35497E+01 8.58646E-03 8.87495E-01-3.68220E-01-3.30313E-03
 -1      1434 1.44047E+00 3.88068E+01 3.94455E+00 1.32074E+00 4.93614E-01 8.45688E-02
 -1      1435 6.81058E-03 3.04749E+01 9.60285E-03 1.26945E+00-4.59479E-01 3.66951E-04
 -1      1436 3.39645E-03 3.05577E+01-5.99450E-02 1.26460E+00-4.89044E-01-9.17939E-03
 -1      1437 1.45580E-01 2.59650E+01 1.12000E-01 2.98546E-02-2.90329E+00 4.76270E-01
 -1      1438 4.49700E-02 3.07677E+01 7.22289E-01 1.26513E+00-5.52396E-01 2.66563E-01
 -1      1439 1.02777E-01 1.60846E+01-2.38105E-01 8.76643E-01-1.19574E-01-2.36990E-02
 -1      1440 8.46424E-04 2.85056E+01-8.18924E-02 8.67575E-01-3.96636E-01 1.02302E-02
 -1      1441 2.90627E-02 2.61380E+01-8.89245E-02 7.61975E-01-5.82494E-01-1.21186E-02
 -1      1442 1.35159E+00 2.33583E+01 1.97190E+00 7.32520E-01-1.04622E+00 2.82335E-02
 -1      1443 2.59245E-01 3.40913E+01 3.61469E-02 1.50458E+00-2.28887E-01 3.02701E-01
 -1      1444-2.27922E-02 4.94977E+01 4.78202E-01 5.61523E-01-2.88857E-01 3.59780E-01
 -1      1445 1.53239E-02 3.03128E+01-2.24792E-02 1.02353E+00-3.15365E-01 2.31645E-02
 -1      1446-1.69952E-02 2.92131E+01 2.50199E-02 1.49414E+00-2.54450E-01-5.29568E-02
 -1      1447-2.90690E-04 3.10333E+01-1.12242E-02 1.20230E+00-5.41520E-01-5.46484E-04
 -1      1448-1.49238E-01 4.27432E+01 3.25473E-01 7.66840E-01-4.22612E-01 5.68370E-02
 -1      1449-1.21570E-01 3.37966E+01 1.10476E-01 1.06281E+00-2.84871E-01-8.72685E-02
 -1      1450 2.80483E-02 3.51993E+01 5.68747E-02 9.61870E-01-1.01669E-01 3.24257E-02
 -1      1451 1.64099E-02 2.94916E+01-5.49662E-02 1.47595E+00-2.84107E-01-1.64979E-01
 -1      1452 2.52487E-01 1.51556E+01 4.13433E-01 9.39094E-01-1.51937E-01 1.37965E-01
 -1      1453-1.74147E-02 3.12095E+01 1.94350E-02 9.53869E-01-1.23130E-01 3.49302E-03
 -1      1454 1.03836E-01 2.54304E+01-1.47439E-01 8.23757E-01-6.27941E-01-4.00439E-02
 -1      1455 4.31461E-02 3.30050E+01 1.18735E-01 1.14947E+00-5.56134E-01 1.08093E-01
 -1      1456 2.06062E+00 3.43301E+01 1.53414E+00 1.00386E+00-1.34852E+00 4.50680E-01
 -1      1457-2.61009E-02 2.78585E+01-1.26459E-01 7.84640E-01-5.44515E-01-1.59196E-02
 -1      1458-3.66903E-01 4.64970E+01 5.83183E-01 7.73565E-01-3.18820E-01 1.56718E-01
 -1      1459-2.22402E-02 3.66376E+01 1.24024E-01 7.94249E-01-6.08630E-01 1.94615E-02
 -1      1460-3.80772E-03 3.22546E+01 1.63730E-02 8.50662E-01-3.52741E-01-7.44806E-04
 -1      1461-1.21799E-01 3.80305E+01 1.08202E+00 6.91757E-01-4.21469E-01 1.01597E-01
 -1      1462-1.56611E-02 3.02682E+01-1.38940E-02 1.26093E+00-4.54860E-01 1.06028E-02
 -1      1463-1.29912E-02 3.06887E+01-3.11440E-02 1.25869E+00-4.61525E-01-2.86899E-03
 -1      1464 6.33641E-01 3.18715E+01 2.22959E-01-1.26435E+00-4.22414E+00 8.74727E-01
 -1      1465-1.04038E-01 3.01720E+01 1.66826E+00 1.41184E+00-6.58125E-01 5.73465E-01
 -1      1466-1.84774E-01 1.43749E+01-4.22073E-01 1.06402E+00-5.36227E-02 2.18379E-02
 -1      1467 2.63907E-03 2.98490E+01-3.93244E-02 8.58223E-01-3.78602E-01 1.85943E-02
 -1      1468 3.80779E-02 2.56353E+01-4.57321E-02 8.14514E-01-5.56916E-01-2.00506E-02
 -1      1469 1.34153E-01 2.45912E+01 2.65688E-02 1.19916E+00-5.29372E-01 1.65583E-01
 -1      1470 2.54921E-01 3.52908E+01 5.23065E-02 1.44982E+00-1.24446E-01 2.69097E-01
 -1      1471 1.38583E-01 5.09631E+01 7.62463E-01 2.00349E-01-7.45453E-01 5.27886E-01
 -1      1472 6.14364E-02 2.95153E+01-2.31512E-02 1.00714E+00-3.53907E-01 2.65640E-02
 -1      1473 1.70202E-03 2.87143E+01 3.17424E-02 1.54731E+00-3.00345E-01-1.98883E-01
 -1      1474-4.06847E-03 3.10247E+01-8.92671E-04 1.20674E+00-5.36504E-01 1.72051E-03
 -1      1475 1.17790E-01 4.29673E+01 4.86226E-01 7.73155E-01-3.64857E-01 1.26401E-01
 -1      1476-3.29298E-02 3.47745E+01 1.05839E-01 1.03259E+00-3.51310E-01-2.54524E-02
 -1      1477-2.62937E-02 3.39024E+01 6.75110E-03 9.90420E-01-9.38913E-02 1.85277E-03
 -1      1478 1.73455E+00 4.03971E+01 5.03095E+00 1.56995E+00-1.96325E-01 1.22464E-01
 -1      1479 2.25924E-02 2.99684E+01 1.10517E-03 1.50991E+00-2.67774E-01-4.33261E-02
 -1      1480 4.11731E-03 1.22862E+01 1.26530E+00 1.35423E+00 8.67685E-02 1.40017E-01
 -1      1481 2.08151E-02 3.25757E+01 3.79069E-02 9.61691E-01-1.22699E-01 1.93216E-02
 -1      1482 8.39308E-02 2.42607E+01-2.00417E-01 8.40743E-01-5.33825E-01-7.56950E-02
 -1      1483 3.91050E-02 3.32184E+01 4.65903E-01 1.08925E+00-8.00515E-01 2.64258E-01
 -1      1484-9.28634E-02 3.31332E+01 2.12544E-01 1.18754E+00-9.16024E-02 4.01425E-01
 -1      1485 1.69399E-02 2.87428E+01-8.86451E-02 7.59299E-01-5.67774E-01-3.57669E-03
 -1      1486 1.23357E+00 2.47672E+01 7.74134E-01 4.72424E-01-1.02842E+00 3.03411E-01
 -1      1487-2.78192E-01 4.75357E+01 1.36325E+00 6.49110E-01-5.28414E-01 3.28523E-01
 -1      1488-6.74201E-02 3.79489E+01 2.08697E-01 8.22586E-01-5.40822E-01 6.13423E-02
 -1      1489 3.07284E-03 3.08680E+01-1.61929E-02 8.77097E-01-3.60802E-01 1.69753E-04
 -1      1490-2.43337E-02 3.61763E+01 3.04738E-01 8.66221E-01-6.92183E-01-5.81120E-03
 -1      1491-5.32149E-03 3.01538E+01-6.24657E-03 1.26117E+00-4.35182E-01 1.23449E-03
 -1      1492-2.37470E-02 3.08514E+01-1.57998E-02 1.27675E+00-4.44499E-01-1.96582E-03
 -1      1493 1.17693E+00 4.14505E+01-7.85298E-01-3.33658E+00-5.37562E+00 8.05696E-01
 -1      1494-5.78877E-01 2.88348E+01 3.14397E+00 1.76045E+00-8.98939E-01 9.89802E-01
 -1      1495-2.35078E-03 1.32405E+01-9.51084E-02 1.14541E+00 4.01098E-02-1.65931E-01
 -1      1496-5.79295E-03 3.10930E+01 2.42281E-02 8.97737E-01-3.60552E-01 5.89641E-03
 -1      1497 4.91546E-02 2.41810E+01-1.46768E-01 7.53304E-01-5.43875E-01-3.35865E-02
 -1      1498-2.55836E-01 2.61918E+01-4.32198E-01 1.11346E+00-3.22899E-01 6.36843E-02
 -1      1499-1.57111E-03 3.49669E+01-3.18662E-02 1.37260E+00-1.49012E-01 1.69932E-01
 -1      1500 2.41106E+00 3.32259E+01 3.47558E+00 1.46248E+00-1.29129E+00 1.60792E-01
 -1      1501 4.66905E-01 5.17453E+01 1.11193E+00-1.71976E-01-1.47467E+00 8.04895E-01
 -1      1502 8.98609E-02 2.86830E+01-4.35832E-02 9.72420E-01-3.58185E-01 1.03947E-02
 -1      1503-2.31163E-02 2.84164E+01 5.38715E-02 1.54324E+00-3.29036E-01-2.15100E-01
 -1      1504 3.85101E-03 3.10375E+01 2.76687E-03 1.17984E+00-5.40000E-01 2.22202E-03
 -1      1505-1.67199E-01 4.51945E+01 8.57465E-01 7.82595E-01-1.84868E-01 2.54473E-01
 -1      1506-5.91413E-02 3.56515E+01 9.34246E-02 9.85736E-01-3.39774E-01-1.08460E-01
 -1      1507-7.74244E-03 3.23163E+01-9.96371E-03 1.00176E+00-1.30496E-01 3.64889E-02
 -1      1508-7.70161E-03 3.98819E+01 1.43081E+00 6.63927E-01-5.65973E-01 4.44637E-02
 -1      1509 3.29633E-02 3.03150E+01 1.12411E-02 1.54566E+00-2.12152E-01-5.97656E-02
 -1      1510-1.09683E+00 1.08009E+01 2.79850E+00 2.17074E+00 1.29030E+00 1.94307E-02
 -1      1511-4.26099E-02 3.42243E+01 2.15899E-02 9.44851E-01-1.08091E-01 1.20563E-02
 -1      1512-5.51617E-02 2.43502E+01-2.48224E-01 8.57247E-01-4.99152E-01-6.28733E-02
 -1      1513 5.61597E-03 3.30024E+01 1.08021E+00 9.43699E-01-1.36076E+00 5.52897E-01
 -1      1514-2.06993E-01 3.28266E+01-2.48949E-02 1.38459E+00-3.42071E-03 1.48701E-01
 -1      1515 1.64879E-03 2.99439E+01-2.85405E-02 7.74225E-01-5.65431E-01 4.26370E-04
 -1      1516-1.99606E-03 2.53200E+01-3.33705E-02 1.03168E+00-9.51161E-02 3.15219E-01
 -1      1517 1.58125E-01 4.62011E+01 2.08437E+00 5.85997E-01-8.28374E-01 7.86868E-01
 -1      1518 5.54206E-02 3.77636E+01 2.16236E-01 8.85120E-01-5.12728E-01 6.57007E-02
 -1      1519-1.58957E-03 2.96379E+01-3.76602E-02 8.73643E-01-3.51975E-01 1.14066E-03
 -1      1520-1.19505E-01 3.58898E+01 7.93608E-02 8.87700E-01-6.60088E-01-3.63154E-03
 -1      1521-1.36398E-02 2.98666E+01-3.20387E-02 1.29928E+00-4.24369E-01-1.38276E-02
 -1      1522 5.09462E-03 3.10865E+01 9.78728E-03 1.27185E+00-4.36553E-01 5.33807E-03
 -1      1523-1.72179E+00 2.67376E+01 3.93466E+00 2.28779E+00-1.33024E+00 1.53023E+00
 -1      1524-1.32923E-01 1.16449E+01 2.92101E-01 1.27779E+00 8.99613E-01-1.83103E-01
 -1      1525-1.10782E-03 3.24254E+01 4.08281E-02 8.62751E-01-3.48796E-01-2.67415E-03
 -1      1526 9.49301E-02 2.28158E+01-1.51506E-01 7.12318E-01-4.95176E-01 2.27564E-03
 -1      1527 4.23828E-02 2.64058E+01-3.41418E-01 9.57104E-01-3.83873E-01-2.27374E-03
 -1      1528-1.74622E-01 3.54774E+01-5.11204E-02 1.14275E+00-5.04847E-01 5.59690E-01
 -1      1529 1.03222E-01 3.31577E+01 6.72820E-01 1.39039E+00-4.29073E-01 1.79606E-01
 -1      1530 1.09760E+00 5.27722E+01 1.20146E+00 3.63401E-01-2.08750E+00 4.14272E-01
 -1      1531 1.30059E-01 2.81938E+01-1.06621E-01 1.03193E+00-2.80922E-01 5.81986E-02
 -1      1532-4.84019E-02 2.79992E+01 1.30694E-02 1.54250E+00-2.57762E-01-1.03675E-01
 -1      1533 6.02058E-03 3.10323E+01-5.53520E-04 1.19458E+00-5.41586E-01 3.32788E-03
 -1      1534-2.09499E-01 4.56578E+01 1.79425E+00 7.36048E-01 2.02279E-01 3.54123E-01
 -1      1535-8.04721E-02 3.59906E+01 2.25985E-01 9.62459E-01-3.16031E-01-1.17325E-01
 -1      1536-2.06394E-03 3.08279E+01-3.46281E-02 9.70624E-01-1.34450E-01 1.04495E-03
 -1      1537 5.78036E-02 3.80339E+01 2.18280E-01 7.30100E-01-5.37063E-01 3.54759E-02
 -1      1538-9.63807E-03 3.07162E+01-1.90793E-02 1.53104E+00-2.19307E-01-3.57091E-02
 -1      1539-2.41120E+00 4.36170E-01 5.30584E+00 4.93820E+00 4.59731E+00-4.53448E-01
 -1      1540 5.40060E-02 3.56308E+01 1.02903E-01 9.59496E-01-9.51418E-02 1.78575E-02
 -1      1541 2.55271E-01 2.26617E+01-2.20882E-01 8.26318E-01-6.01987E-01-7.56185E-02
 -1      1542-1.64563E-01 3.28317E+01 1.72301E+00 7.23325E-01-2.41931E+00 1.23279E+00
 -1      1543-1.65427E-01 3.25821E+01-6.54670E-02 1.49554E+00-8.76694E-02 2.07393E-01
 -1      1544 1.53016E-02 3.10416E+01 3.49669E-03 7.83405E-01-5.55182E-01-4.02876E-03
 -1      1545-1.71697E-01 2.61173E+01-2.21277E-01 1.04137E+00-9.75772E-02 1.27698E-01
 -1      1546-2.54876E-01 4.65814E+01 2.51340E+00 3.69136E-01-8.19568E-01 1.15391E+00
 -1      1547-2.64121E-01 3.95367E+01 2.09537E-01 8.62524E-01-5.96807E-01 1.09731E-01
 -1      1548 4.41470E-02 2.83246E+01-3.95890E-02 8.76031E-01-3.72824E-01-1.09099E-03
 -1      1549-1.21132E-01 3.48396E+01-2.61756E-02 8.72411E-01-6.60715E-01 2.27789E-02
 -1      1550 1.70073E-02 2.97083E+01-1.21034E-02 1.27291E+00-4.31008E-01-3.75774E-04
 -1      1551-9.65230E-04 3.12502E+01-5.01386E-03 1.25725E+00-4.48352E-01 3.15039E-03
 -1      1552-3.75467E+00 2.46976E+01-5.48829E-01 2.17111E+00-2.06347E+00 1.57130E+00
 -1      1553-4.92308E-01 1.14060E+01 8.26876E-01 1.64988E+00 2.32899E+00-2.14098E-01
 -1      1554-7.70609E-02 3.37577E+01 3.95973E-02 8.66977E-01-3.79643E-01 1.50945E-03
 -1      1555-1.85013E-01 2.23559E+01-1.55833E-01 7.75575E-01-5.36168E-01-1.56146E-02
 -1      1556 4.92827E-02 2.72719E+01-2.19086E-01 9.11466E-01-5.00038E-01-1.54381E-02
 -1      1557 3.26277E-01 3.63775E+01 2.48937E-01 8.01197E-01-9.85111E-01 6.94960E-01
 -1      1558-1.50399E-01 3.25029E+01-6.31837E-03 1.33048E+00-2.63573E-01 1.08748E-01
 -1      1559-9.22500E-02 2.72951E+01-1.25836E-01 9.98190E-01-3.08957E-01 1.17247E-02
 -1      1560-2.62747E-01 2.74559E+01-7.63426E-02 1.54576E+00-2.79615E-01-3.67807E-01
 -1      1561 4.41399E-03 3.10222E+01-1.55443E-04 1.21178E+00-5.43391E-01 1.65613E-03
 -1      1562 1.29569E-01 4.45431E+01 3.03006E+00 9.39230E-01 5.49334E-01 6.18115E-01
 -1      1563 1.27213E-02 3.70890E+01 2.33008E-01 9.98927E-01-3.45468E-01-2.15059E-02
 -1      1564-1.90212E-02 2.94704E+01-3.27457E-02 9.67841E-01-1.26312E-01-2.20462E-02
 -1      1565-1.10571E-01 3.71712E+01 7.04302E-02 7.24561E-01-5.00698E-01-2.06568E-02
 -1      1566-9.43892E-03 3.11233E+01 3.65654E-03 1.51612E+00-2.39271E-01 8.49663E-04
 -1      1567-9.15550E+00-2.03872E+01 5.54010E+00 1.64585E+01 8.84363E+00-8.26911E-01
 -1      1568-2.11211E-02 3.66776E+01 8.84863E-02 1.00865E+00-1.26027E-01 2.83454E-02
 -1      1569 1.94990E-01 2.13932E+01-1.36574E-01 8.71173E-01-6.31689E-01-1.64649E-01
 -1      1570 5.35517E-01 3.64508E+01 1.64722E+00 7.93300E-01 7.66470E-01 4.20938E-02
 -1      1571-4.18834E-01 3.25623E+01 1.53455E+00 1.51734E-01-3.50855E+00 2.10370E+00
 -1      1572-4.48846E-02 3.23645E+01 2.29048E-03 1.49245E+00-1.42830E-01 1.68227E-01
 -1      1573 6.20198E-03 3.22865E+01 3.27375E-02 7.74949E-01-5.62799E-01 3.73791E-03
 -1      1574 1.15235E-01 2.69419E+01-1.26923E-01 9.60924E-01-1.98124E-01 4.15749E-02
 -1      1575 6.01729E-01 4.41823E+01 6.01481E-01 1.98719E-01-2.69998E-01 1.67672E-01
 -1      1576-2.21275E-01 4.06308E+01 2.18366E-01 9.66399E-01-5.35782E-01 2.45571E-01
 -1      1577 8.57371E-03 2.72600E+01-9.26915E-02 8.88283E-01-3.56040E-01 3.25325E-02
 -1      1578 4.57149E-03 3.34981E+01 1.24930E-02 8.89191E-01-5.86957E-01 3.41223E-02
 -1      1579 9.82745E-03 2.95223E+01-1.62021E-02 1.27887E+00-4.67563E-01-8.08390E-04
 -1      1580-9.11835E-03 3.13958E+01-1.42477E-02 1.25563E+00-4.45309E-01 3.98259E-03
 -1      1581-9.60725E-01 1.57457E+01 1.78402E+00 1.77766E+00 5.16559E+00-1.25397E+00
 -1      1582-1.82755E-03 3.47700E+01 8.81842E-02 9.15080E-01-3.49679E-01-1.19117E-02
 -1      1583 1.35614E-01 2.03562E+01-1.56941E-01 7.47488E-01-6.01131E-01-3.75657E-02
 -1      1584-4.78885E-02 2.86052E+01-1.33689E-01 9.00164E-01-5.15242E-01-3.68227E-03
 -1      1585 3.71448E-01 3.82383E+01 2.48808E-01 1.07860E-01-1.67655E+00 8.30438E-01
 -1      1586-3.84214E-02 3.20691E+01-1.07790E-01 1.28806E+00-2.97859E-01 3.96849E-02
 -1      1587 1.29233E-01 2.63037E+01-4.24446E-02 9.71715E-01-3.28568E-01 8.54008E-02
 -1      1588-3.14653E-01 2.71247E+01 4.82014E-02 1.64208E+00-2.26429E-01-2.54620E-01
 -1      1589-7.51899E-03 3.10306E+01-4.76005E-03 1.19268E+00-5.38833E-01-9.38678E-04
 -1      1590-6.32570E-01 4.50501E+01 3.38222E+00 8.35968E-01 1.31976E+00 6.42762E-01
 -1      1591-1.06192E-01 3.78080E+01 6.48913E-02 1.01380E+00-2.52295E-01-1.58808E-01
 -1      1592 3.54990E-02 2.79403E+01-3.67216E-02 9.71879E-01-9.11211E-02-3.52276E-02
 -1      1593-8.22256E-02 3.56563E+01-7.37753E-03 7.93356E-01-5.33459E-01-2.35762E-03
 -1      1594-1.01901E-02 3.14365E+01-1.06290E-02 1.50283E+00-2.35381E-01 4.71119E-02
 -1      1595-8.11974E-02 3.85133E+01 7.07178E-02 9.42550E-01-1.06405E-01 2.14171E-02
 -1      1596 8.38459E-03 2.18100E+01-9.74584E-02 9.91149E-01-6.18221E-01-5.92000E-02
 -1      1597-2.31877E-01 3.55881E+01 3.74614E-01 6.06555E-01-3.16859E-01-1.91884E-02
 -1      1598-1.25782E-01 3.25143E+01-4.29789E-01-1.41073E+00-2.90524E+00 1.26984E+00
 -1      1599-1.64451E-02 3.19976E+01-3.48493E-02 1.52149E+00-2.12016E-01 4.50381E-02
 -1      1600-4.02481E-02 3.35361E+01 1.58438E-02 7.68928E-01-5.70255E-01 8.03309E-03
 -1      1601 8.43066E-02 2.78541E+01-7.24791E-02 9.55952E-01-2.85193E-01 4.56701E-02
 -1      1602 2.27633E-02 4.04473E+01 4.40599E-01 1.03981E+00-3.11206E-01 2.81269E-01
 -1      1603-3.61975E-03 2.56551E+01-1.63509E-01 8.57046E-01-3.14131E-01 2.20630E-02
 -1      1604 4.64164E-01 1.90710E+01 3.88230E-01 7.22576E-01 1.45673E-01-4.32014E-01
 -1      1605-5.86913E-03 3.29010E+01 1.02015E-02 8.65153E-01-5.91489E-01 1.02064E-02
 -1      1606 3.60465E-02 2.94555E+01-2.55111E-02 1.31249E+00-4.70364E-01 1.88561E-02
 -1      1607 1.01338E-02 3.16093E+01 6.28994E-03 1.27018E+00-4.39705E-01 3.84511E-03
 -1      1608-9.26023E-02 2.30802E+01 5.67011E-01-2.13405E-02 9.47014E+00-3.32389E+00
 -1      1609 1.59674E-02 3.64065E+01 1.57760E-01 8.56902E-01-3.07771E-01-1.71214E-02
 -1      1610 2.14359E-01 1.95061E+01-1.69228E-01 7.76484E-01-6.30350E-01-1.18898E-02
 -1      1611 3.90763E-02 2.91783E+01-6.50761E-02 8.53429E-01-5.51475E-01-6.34657E-03
 -1      1612 1.07745E+00 4.16182E+01 3.72998E-01-1.35730E+00-2.45328E+00 1.43111E+00
 -1      1613 7.17321E-03 3.18078E+01-5.77887E-02 1.29929E+00-3.60417E-01 2.51117E-02
 -1      1614 1.20474E-01 2.61808E+01-1.86573E-01 9.78541E-01-2.80907E-01 9.24916E-02
 -1      1615-1.50011E-01 2.68400E+01 1.72316E-01 1.61273E+00-1.60227E-01-6.26469E-02
 -1      1616-1.44792E-02 3.10390E+01-2.86555E-03 1.20864E+00-5.41604E-01-6.39091E-03
 -1      1617 3.68209E-02 4.33264E+01 1.07129E+00 7.04203E-01 1.62973E+00 1.18395E-01
 -1      1618-1.32994E-01 3.82044E+01 3.05487E-01 9.93184E-01-3.85623E-01-1.92297E-01
 -1      1619-4.01682E-02 2.63940E+01-1.09499E-01 9.56979E-01-1.02870E-01-1.28320E-02
 -1      1620 2.86611E-02 3.45247E+01-2.23240E-02 7.69796E-01-5.41401E-01 5.23862E-02
 -1      1621-1.39600E-03 3.18286E+01-3.33114E-02 1.55407E+00-2.49715E-01 7.95742E-02
 -1      1622 2.28043E-03 3.99546E+01 1.87386E-01 1.07932E+00-1.38887E-01 4.38599E-02
 -1      1623 3.29291E-01 2.02228E+01 5.12641E-01 6.58761E-01-1.30120E+00 1.58836E-01
 -1      1624-1.06143E-01 3.49364E+01 1.58865E-01 8.04267E-01-5.31845E-01-4.96267E-02
 -1      1625-1.80477E-02 3.17173E+01-2.46962E-02 1.54176E+00-1.89601E-01 6.37387E-02
 -1      1626 2.44292E+00 3.16858E+01 3.90493E+00 1.66823E+00-4.91952E-01-2.32692E-02
 -1      1627 2.55721E-02 3.43867E+01 5.39948E-02 7.79436E-01-5.71634E-01 8.25490E-03
 -1      1628-1.76223E-02 2.88370E+01-4.44210E-02 9.97464E-01-3.16125E-01 3.63090E-03
 -1      1629-3.34873E-02 4.26102E+01 7.24025E-01 9.50878E-01-9.30899E-02 2.28011E-01
 -1      1630 6.23064E-02 2.50731E+01-1.16572E-01 8.80762E-01-3.89707E-01 6.49607E-02
 -1      1631 3.32671E-02 2.02070E+01-2.24513E-01 1.04377E+00-4.08031E-01-2.45224E-01
 -1      1632-1.06389E-02 3.19035E+01 4.09430E-02 8.53560E-01-5.66372E-01 3.20835E-03
 -1      1633 1.07359E-01 2.92542E+01 4.07250E-02 1.26943E+00-4.55848E-01 6.99953E-02
 -1      1634 4.14068E-03 3.18103E+01 7.05770E-03 1.26429E+00-4.50104E-01-1.46836E-03
 -1      1635-9.71389E-02 3.69897E+01 1.12718E-01 8.70170E-01-3.92463E-01-7.32717E-02
 -1      1636-2.05917E-01 1.83898E+01 5.69547E-03 8.14884E-01-7.06267E-01 1.42258E-02
 -1      1637 1.99575E+00 4.18366E+01 4.45076E+00 1.57226E+00-1.40916E+00 1.66787E-01
 -1      1638 5.40186E-03 3.01291E+01-3.86276E-02 8.52976E-01-5.74862E-01-4.43571E-03
 -1      1639 1.94045E+00 4.44289E+01 3.87804E-01-2.98194E+00-2.91292E+00 3.33328E-01
 -1      1640-1.16854E-02 3.15375E+01-4.98639E-02 1.26825E+00-4.08992E-01 1.68377E-02
 -1      1641 1.26416E-02 2.49933E+01-2.40093E-01 9.51851E-01-3.18923E-01 2.61623E-02
 -1      1642-4.28357E-02 2.66147E+01 2.54295E-01 1.63786E+00-6.64612E-02-3.95035E-01
 -1      1643 5.78625E-03 3.10444E+01-7.97101E-03 1.22630E+00-5.58004E-01-6.28991E-03
 -1      1644-2.41485E-01 3.90598E+01 2.68346E-01 1.25892E+00-2.72185E-01-4.60031E-02
 -1      1645 2.76156E-02 2.53303E+01-9.78487E-02 1.01058E+00-1.39089E-01-2.42192E-02
 -1      1646 1.18405E+00 2.05309E+01 1.43425E+00 6.15725E-01 1.63673E-01-1.80786E-01
 -1      1647-2.08037E-02 3.33430E+01 5.29201E-03 7.68510E-01-5.58597E-01 1.08057E-02
 -1      1648 4.70799E-03 3.21915E+01-1.76852E-02 1.52891E+00-2.36844E-01 4.11172E-02
 -1      1649-4.89106E-02 4.15945E+01 1.31854E-01 1.05083E+00-1.26796E-01 1.01056E-01
 -1      1650 3.96275E-01 1.92833E+01 1.01749E+00 7.33311E-01-2.28488E+00 3.73248E-01
 -1      1651-2.43839E-01 3.44991E+01 1.08189E-02 9.56012E-01-5.14462E-01-3.73604E-02
 -1      1652 1.75812E-02 3.13490E+01 8.89403E-03 1.52983E+00-2.06887E-01 3.70087E-02
 -1      1653 1.11987E-01 3.21494E+01 9.74307E-01 1.49666E+00-5.70200E-01 2.35324E-02
 -1      1654-2.76705E-02 3.59324E+01 1.03386E-01 7.59139E-01-5.73302E-01 1.36037E-02
 -1      1655 5.02779E-02 2.95037E+01-4.47391E-02 1.01619E+00-3.37916E-01 3.87550E-03
 -1      1656-3.59539E-01 4.39363E+01 1.42541E+00 1.05638E+00 6.80180E-01 4.14274E-01
 -1      1657 1.31949E-01 2.32846E+01-1.09452E-01 8.38373E-01-3.07679E-01 2.11728E-02
 -1      1658-3.70321E-01 2.18172E+01-2.31717E-01 9.80475E-01-3.59404E-01-8.59368E-02
 -1      1659-3.47997E-03 3.09500E+01-6.12040E-03 8.94252E-01-5.47405E-01 6.03385E-03
 -1      1660 4.03290E-02 2.90866E+01 2.01764E-01 1.38593E+00-3.81348E-01 1.12497E-01
 -1      1661 1.36095E-03 3.19998E+01 1.77443E-02 1.26532E+00-4.53617E-01-1.08195E-02
 -1      1662-2.57638E-02 3.86763E+01 1.31351E-01 8.00895E-01-3.04016E-01-3.77054E-02
 -1      1663 2.63567E-01 1.69492E+01 6.76199E-01 8.90510E-01-9.76837E-01 1.94438E-01
 -1      1664 2.18342E-03 3.11164E+01-2.06149E-04 8.86470E-01-5.56069E-01-5.61227E-03
 -1      1665-1.67182E-03 4.04023E+01 1.00011E+00 6.70913E-01-3.88118E-01-1.32050E-02
 -1      1666 9.54748E-03 3.13743E+01-2.54359E-02 1.26248E+00-4.34564E-01 5.67768E-03
 -1      1667 2.25880E+00 3.06936E+01 3.12119E+00 1.52902E+00 3.96442E-01-1.45145E-01
 -1      1668 9.11575E-02 2.42859E+01-8.77103E-02 9.57506E-01-2.16673E-01 1.63216E-01
 -1      1669-5.81388E-01 2.72161E+01 2.75694E-01 1.86550E+00 4.76502E-01-3.68584E-01
 -1      1670 9.35937E-03 3.10201E+01-1.10750E-02 1.21972E+00-5.52133E-01 5.84546E-04
 -1      1671-3.70234E-01 3.98462E+01 3.15229E-01 1.23697E+00 1.06055E-01-2.53265E-01
 -1      1672 2.11716E-02 2.36738E+01-1.25006E-01 9.59039E-01-1.57339E-01 4.03794E-03
 -1      1673 2.43426E-01 2.21234E+01-6.78896E-02 1.19981E+00-4.61663E-01-1.50131E-01
 -1      1674-2.17735E-03 3.21015E+01 1.25084E-02 7.69247E-01-5.61014E-01 9.28277E-04
 -1      1675-1.91296E-02 3.25366E+01-4.31660E-02 1.50561E+00-2.69604E-01 1.20762E-01
 -1      1676 9.72582E-02 4.27724E+01 1.72110E-01 1.05950E+00-8.15961E-02 6.55882E-02
 -1      1677-3.15589E-01 1.98550E+01 1.44179E+00 3.50015E-01-4.41982E+00 9.74473E-01
 -1      1678-1.81279E-01 3.38702E+01-4.52079E-02 1.02298E+00-4.08476E-01-6.49478E-02
 -1      1679 9.68303E-03 3.09791E+01 1.79357E-03 1.51044E+00-2.31401E-01-3.39877E-03
 -1      1680-1.67247E-01 3.16742E+01 3.26627E-03 1.35353E+00-5.49762E-01 2.25216E-02
 -1      1681-5.59694E-02 3.64213E+01 5.68342E-02 8.14843E-01-5.66989E-01 2.34353E-02
 -1      1682 1.13508E+00 4.12339E+01 1.49922E+00 9.17518E-01-1.11851E+00 1.89015E-01
 -1      1683 9.27922E-03 3.03163E+01-4.61423E-03 1.03558E+00-3.53334E-01 1.40706E-02
 -1      1684-2.64577E-01 4.34808E+01 2.55239E+00 1.02005E+00 1.96346E+00 2.85376E-01
 -1      1685 1.53424E-01 2.17070E+01-1.43344E-01 8.56708E-01-4.34116E-01-2.93181E-02
 -1      1686-1.15504E-02 2.33729E+01-6.41881E-02 9.60200E-01-3.18966E-01-7.20294E-02
 -1      1687-1.32349E-02 3.00567E+01-3.36762E-02 8.87600E-01-5.70574E-01-2.62743E-03
 -1      1688-3.96950E-02 2.86768E+01 5.36573E-01 1.50149E+00-1.94778E-01 1.84066E-01
 -1      1689-2.30590E-02 3.21289E+01-2.10796E-02 1.29547E+00-4.34641E-01 9.54407E-03
 -1      1690 1.15354E+00 2.16924E+01 1.68526E+00 7.29792E-01-4.17786E-01 1.45856E-02
 -1      1691-6.74180E-02 4.05784E+01 1.63978E-01 7.71711E-01-3.57994E-01 2.00162E-02
 -1      1692 1.84734E-01 1.48459E+01 1.64143E+00 8.46727E-01-1.43555E+00 4.88789E-01
 -1      1693-1.06899E-02 3.19883E+01 1.80218E-02 8.88174E-01-5.67106E-01 2.23549E-03
 -1      1694-1.96365E-02 3.83611E+01 2.01636E-01 8.29005E-01-2.17710E-01 3.91868E-02
 -1      1695 1.50280E-02 3.11913E+01-2.87154E-03 1.27266E+00-4.47688E-01 5.18776E-03
 -1      1696 3.89179E-02 3.06147E+01 6.21640E-01 1.46261E+00-4.78950E-01-1.31384E-01
 -1      1697 1.01647E-01 2.38849E+01-2.76507E-01 9.68379E-01-4.30164E-01 1.99724E-01
 -1      1698-1.07403E+00 2.82706E+01 6.45971E-01 1.91904E+00 1.61613E+00-2.85402E-01
 -1      1699-7.19051E-03 3.10502E+01-1.17054E-02 1.19012E+00-5.72368E-01 2.10900E-02
 -1      1700-1.42351E-01 4.17589E+01 6.46703E-01 1.02980E+00 6.11192E-01-6.33560E-02
 -1      1701 6.40957E-02 2.22285E+01-1.05541E-01 1.03859E+00-1.86800E-01-8.14440E-02
 -1      1702-1.14749E-01 2.39085E+01-2.72987E-01 1.12888E+00-6.51489E-01-1.18120E-01
 -1      1703-1.72038E-02 3.09355E+01-1.78138E-02 7.93415E-01-5.53747E-01-1.68119E-04
 -1      1704 4.97021E-02 3.29586E+01-1.94031E-02 1.50146E+00-2.38037E-01 7.56352E-02
 -1      1705-1.90238E-01 4.42013E+01 7.50945E-02 9.80471E-01-1.22250E-01 2.89359E-01
 -1      1706 2.97439E-01 1.88805E+01 8.64964E-01-4.01306E-01-8.01807E+00 1.62550E+00
 -1      1707-1.44332E-02 3.31711E+01-8.23458E-03 1.03527E+00-3.56127E-01-3.52891E-03
 -1      1708 2.25430E-02 3.06304E+01 1.39290E-02 1.49715E+00-2.33664E-01-4.46018E-02
 -1      1709-8.61059E-02 3.12979E+01-1.61746E-01 1.28468E+00-5.37981E-01 7.14832E-04
 -1      1710-5.52385E-02 3.78873E+01 1.11589E-01 7.54831E-01-5.50864E-01 4.20913E-02
 -1      1711-1.57600E-01 4.03065E+01 3.78640E-01 5.67500E-01-1.11313E-01 4.66839E-02
 -1      1712-2.73460E-02 3.10658E+01 5.21277E-03 1.01758E+00-3.63320E-01-3.45457E-03
 -1      1713 1.51112E+00 2.76351E+01 1.17854E+00 1.01507E+00 6.80703E-01-3.74563E-01
 -1      1714-1.20671E+00 4.47781E+01 2.97795E+00 8.25425E-01 3.15630E+00 1.16271E-02
 -1      1715-3.01828E-02 2.12122E+01-9.52957E-02 9.36864E-01-4.22996E-01-5.78020E-02
 -1      1716 6.97114E-02 2.52429E+01-6.53307E-02 9.62882E-01-2.72273E-01-1.02765E-01
 -1      1717 5.82267E-02 2.91716E+01-3.68911E-02 8.89753E-01-5.44421E-01-2.49829E-02
 -1      1718-1.89633E-01 2.83842E+01 1.28537E+00 1.68865E+00 3.94243E-01 3.17267E-01
 -1      1719 5.26915E-03 3.23280E+01-7.72612E-03 1.27607E+00-4.26171E-01 3.74760E-03
 -1      1720 1.66450E-01 2.30074E+01 4.93810E-02 1.15670E+00-5.69893E-01-3.10935E-02
 -1      1721 4.68492E-02 4.05718E+01 1.62400E-01 8.76698E-01-3.74689E-01 1.69313E-02
 -1      1722-7.07466E-01 1.19131E+01 3.60965E+00 1.50147E+00-2.58615E+00 8.00229E-01
 -1      1723-4.34239E-02 3.29584E+01 6.06664E-02 8.79186E-01-5.42413E-01 2.22760E-02
 -1      1724-1.53766E-01 3.77429E+01 3.52284E-02 8.53634E-01-2.60865E-01 2.78697E-02
 -1      1725 5.83654E+00 3.30298E+01 5.81913E+00 1.98098E+00 2.31663E+00-1.76433E-01
 -1      1726 6.78970E+00 3.35728E+01 8.12815E+00 2.35758E+00 6.39519E-01 8.16618E-02
 -1      1727 3.39002E-01 3.31484E+01 1.09493E+00 1.26230E+00-5.87374E-02-6.54105E-02
 -1      1728-2.64968E-01 3.26705E+01 2.25400E-01 1.19137E+00-6.18100E-01-8.05643E-02
 -1      1729 7.27079E-01 3.54299E+01 2.32442E+00 1.43912E+00-3.21080E-01-7.77356E-03
 -1      1730-1.19137E-01 3.46387E+01 4.85717E-01 1.10096E+00-6.34851E-01-1.79429E-02
 -1      1731-1.84919E-01 3.20771E+01 2.50667E-02 1.24901E+00-5.65925E-01-7.39653E-02
 -1      1732-3.64554E-02 3.19458E+01-7.95463E-02 1.27920E+00-5.09479E-01-4.88783E-02
 -1      1733-1.27791E-01 3.36789E+01-1.04464E-02 1.18770E+00-6.43798E-01-2.93203E-02
 -1      1734-5.54212E-02 3.31100E+01-8.83059E-02 1.15569E+00-5.94740E-01-8.75375E-03
 -1      1735-6.37023E-02 3.22317E+01-5.30194E-02 1.20593E+00-4.73408E-01-2.40681E-02
 -1      1736-5.33935E-03 3.16130E+01 3.68402E-05 1.28889E+00-4.08305E-01-4.41615E-03
 -1      1737-3.54658E-02 3.28351E+01-5.36749E-02 1.07221E+00-5.67172E-01 4.46936E-03
 -1      1738-3.62288E-03 3.21014E+01-3.11471E-02 1.12244E+00-5.49647E-01-9.71072E-03
 -1      1739 1.25333E-03 3.13425E+01 1.57856E-02 1.31572E+00-3.80034E-01-9.86352E-03
 -1      1740-3.48600E-02 3.11607E+01 1.46689E-03 1.23352E+00-3.87055E-01-1.19398E-02
 -1      1741-4.31840E-03 3.16585E+01-1.29238E-02 1.14793E+00-5.44499E-01-3.51400E-06
 -1      1742-1.30050E-02 3.12669E+01-6.96822E-03 1.08803E+00-5.45635E-01 2.30103E-03
 -1      1743 6.05445E-04 3.09712E+01 8.93977E-03 1.32478E+00-3.68029E-01 7.34526E-03
 -1      1744 2.54230E-03 3.07463E+01-2.61986E-02 1.31708E+00-3.50349E-01 1.44244E-02
 -1      1745-1.56670E-02 3.08077E+01-9.65771E-03 1.10943E+00-5.39185E-01 2.94882E-03
 -1      1746 1.38697E-02 3.04169E+01 2.36070E-04 1.10096E+00-5.40927E-01 4.79749E-03
 -1      1747 6.68666E-02 3.02629E+01-1.70716E-02 1.20647E+00-3.87201E-01-1.91229E-02
 -1      1748 8.11211E-03 3.03519E+01-5.06990E-02 1.36373E+00-3.67531E-01 8.89746E-03
 -1      1749 4.64332E-02 2.97409E+01-6.14241E-02 1.08775E+00-5.35084E-01 8.58794E-03
 -1      1750 1.17462E-03 2.95397E+01-2.82446E-02 1.10130E+00-5.57745E-01 3.21415E-03
 -1      1751 4.58238E+00 2.45581E+01 4.40535E+00 7.62963E-02 1.83574E+00-6.45358E-02
 -1      1752 4.46141E+00 2.53627E+01 5.53128E+00 3.89172E-01 4.06149E-01-2.38799E-02
 -1      1753 3.79444E-01 2.57211E+01 5.06615E-01 1.41884E+00-1.71887E-01-3.18387E-01
 -1      1754-1.77322E-01 2.62010E+01 3.97998E-02 1.56359E+00-5.62505E-01-2.00500E-01
 -1      1755 6.47089E-01 2.72834E+01 1.44689E+00 1.47011E+00-3.07768E-01-1.10159E-01
 -1      1756-1.01148E-01 2.77046E+01 3.71480E-02 1.37172E+00-5.81492E-01-7.70750E-02
 -1      1757-1.31300E-01 2.68957E+01-1.76125E-02 1.31819E+00-5.81211E-01-9.79965E-02
 -1      1758-6.63235E-02 2.74800E+01-1.29596E-01 1.27295E+00-4.44475E-01-6.07716E-02
 -1      1759-1.27851E-01 2.80429E+01-2.46064E-01 1.30237E+00-6.35932E-01-2.66841E-02
 -1      1760-3.31780E-02 2.84658E+01-1.84455E-01 1.15631E+00-5.48801E-01-1.46411E-02
 -1      1761 3.40591E-02 2.82720E+01-7.68296E-02 1.27680E+00-3.56740E-01-9.96198E-03
 -1      1762 2.17803E-03 2.91047E+01-3.09799E-02 1.27919E+00-3.45662E-01-7.67138E-03
 -1      1763 5.06787E-02 2.87442E+01-1.60902E-01 1.08392E+00-5.20766E-01-8.68790E-03
 -1      1764 1.88836E-02 2.96041E+01-7.59883E-02 1.13203E+00-5.07743E-01-5.61612E-04
 -1      1765-2.02071E-02 2.98970E+01-3.19987E-02 1.29056E+00-3.12868E-01-1.34162E-02
 -1      1766 2.61849E-03 3.07226E+01 6.54387E-04 1.35204E+00-3.04326E-01-1.35835E-02
 -1      1767-6.13632E-03 3.01700E+01-3.21724E-02 1.14959E+00-5.07690E-01-4.48551E-03
 -1      1768 6.58059E-03 3.07153E+01-7.32584E-03 1.09957E+00-4.92737E-01 7.27755E-03
 -1      1769 1.41213E-03 3.15023E+01 1.97380E-02 1.32873E+00-2.87768E-01 8.02388E-03
 -1      1770 3.10569E-04 3.22286E+01 1.55059E-02 1.29228E+00-2.92415E-01 1.39257E-02
 -1      1771 1.47299E-02 3.13769E+01 1.20778E-02 1.10488E+00-4.98836E-01 9.43697E-03
 -1      1772-1.08411E-02 3.19685E+01-1.08470E-02 1.10106E+00-5.08977E-01 1.63752E-03
 -1      1773-2.87261E-02 3.30030E+01 7.89719E-03 1.30462E+00-3.09154E-01 1.29785E-03
 -1      1774-6.94773E-03 3.37964E+01 3.03797E-02 1.34159E+00-2.56996E-01 1.17149E-02
 -1      1775-2.84146E-02 3.28101E+01 5.87279E-02 1.10537E+00-5.06887E-01 9.06039E-03
 -1      1776 1.58591E-02 3.31806E+01 2.71575E-02 1.10421E+00-4.92864E-01 6.32943E-03
 -1      1777 4.66820E-02 3.02345E+01-4.12448E-02 1.29523E+00-3.27961E-01 2.00437E-02
 -1      1778 6.68490E-02 2.98971E+01-2.56586E-02 1.41303E+00-3.67670E-01 1.25099E-02
 -1      1779 9.17834E-03 2.91285E+01-1.11601E-02 1.11677E+00-5.28713E-01-3.84516E-03
 -1      1780 2.22684E-02 2.86292E+01-7.18553E-02 1.16377E+00-5.46221E-01-8.96548E-03
 -1      1781 4.04987E-02 2.97649E+01-4.14603E-02 1.41140E+00-3.55552E-01 4.00950E-02
 -1      1782 4.78644E-02 2.95872E+01-9.36617E-02 1.33400E+00-3.20110E-01 7.17267E-03
 -1      1783 2.39116E-02 2.82431E+01-4.24001E-02 1.19431E+00-5.43907E-01-3.91624E-03
 -1      1784 5.45665E-03 2.78893E+01-4.25230E-02 1.15561E+00-5.33743E-01 4.21743E-03
 -1      1785 1.10123E-01 2.93443E+01-4.03982E-02 1.40303E+00-3.59243E-01 4.62868E-03
 -1      1786-2.54477E-02 2.86280E+01-6.60470E-02 1.26606E+00-3.41384E-01 4.02042E-02
 -1      1787 2.63120E-02 2.73869E+01-8.97824E-02 1.11946E+00-5.54675E-01 9.27245E-03
 -1      1788-1.79202E-02 2.69509E+01-3.69577E-02 1.09817E+00-6.09242E-01 2.29167E-03
 -1      1789-5.53773E-02 2.88784E+01-1.90530E-01 1.18245E+00-4.28008E-01 8.33640E-02
 -1      1790 2.72932E-01 2.78329E+01 8.91028E-02 1.21051E+00-6.25444E-01 1.26485E-01
 -1      1791 3.51848E-02 2.66718E+01 7.23989E-02 1.06263E+00-6.22181E-01 5.85605E-02
 -1      1792 9.69550E-02 2.60196E+01 3.24730E-01 9.67409E-01-7.54861E-01 2.20816E-01
 -1      1793 2.56659E-01 2.75761E+01 3.86794E-01 9.73823E-01-1.15326E+00 3.18508E-01
 -1      1794 2.45840E-01 2.91608E+01 7.95535E-01 5.18979E-01-2.25264E+00 6.14100E-01
 -1      1795 1.26568E-01 2.52721E+01 1.00339E+00 1.14458E+00-1.20959E+00 3.71952E-01
 -1      1796-7.05031E-02 2.42584E+01 2.00425E+00 1.29812E+00-2.13490E+00 8.53693E-01
 -1      1797 3.99558E-01 3.09687E+01 8.80600E-01-3.65747E-01-3.95767E+00 1.28366E+00
 -1      1798 2.04552E-01 3.26001E+01-3.31632E-02-1.99834E+00-5.05248E+00 1.74892E+00
 -1      1799-8.63159E-01 2.19833E+01 2.62591E+00 1.34757E+00-4.05663E+00 1.68809E+00
 -1      1800-2.04674E+00 2.05462E+01 6.45063E-01 1.50287E+00-6.18846E+00 3.00717E+00
 -1      1801-1.35774E+00 3.61031E+01-1.66296E+00-3.01266E+00-2.42413E+00-1.95534E+00
 -1      1802 2.16244E-01 2.93081E+01-4.34989E+00-1.22062E+00-3.81119E+00-1.31411E+00
 -1      1803-8.08980E-03 3.45757E+01 5.35829E-02 1.26803E+00-2.86914E-01 6.79091E-03
 -1      1804-8.09763E-02 3.57660E+01 8.12425E-02 1.25314E+00-3.02076E-01-1.78205E-02
 -1      1805-2.41126E-03 3.37984E+01 4.19690E-02 1.11690E+00-5.00047E-01 2.17095E-03
 -1      1806-9.50120E-02 3.48673E+01 8.29087E-02 1.06976E+00-4.99244E-01 1.12027E-02
 -1      1807-2.20939E-02 3.60658E+01 2.19530E-02 1.34977E+00-2.28670E-01 3.21456E-02
 -1      1808 1.07641E-02 3.68819E+01 6.25442E-02 1.20645E+00-2.53604E-01 1.83379E-02
 -1      1809 2.75089E-02 3.50530E+01 4.85076E-02 1.11242E+00-4.88112E-01 6.63607E-03
 -1      1810 6.25167E-03 3.55544E+01 5.08365E-02 1.07937E+00-4.95440E-01-2.08899E-03
 -1      1811-6.20606E-02 3.85968E+01 1.17765E-01 1.15848E+00-2.78363E-01 4.58680E-02
 -1      1812 1.47751E-02 3.82868E+01 1.33463E-01 1.24481E+00-2.67466E-01 1.12636E-01
 -1      1813-7.51844E-02 3.62841E+01 4.92808E-02 1.02648E+00-4.82597E-01 4.46277E-02
 -1      1814-7.08393E-02 3.68310E+01 4.60004E-02 1.06810E+00-4.48578E-01 5.60890E-02
 -1      1815-3.80915E-02 4.01823E+01 8.93554E-02 1.12076E+00-2.97000E-01 4.56960E-02
 -1      1816-1.21777E-01 3.96332E+01 1.60153E-01 1.25662E+00-3.65460E-01 1.63359E-01
 -1      1817-3.16055E-02 3.74162E+01 1.70595E-01 1.07047E+00-4.80101E-01 8.51409E-02
 -1      1818 2.40549E-03 3.80584E+01 5.00929E-01 1.01949E+00-4.38189E-01 2.10442E-01
 -1      1819 5.22938E-03 4.03596E+01 5.75612E-01 8.76611E-01-6.17858E-01 3.63033E-01
 -1      1820 3.57316E-02 4.14561E+01 7.56868E-01 5.60826E-01-1.23505E+00 6.17389E-01
 -1      1821 4.81960E-02 3.83917E+01 1.05230E+00 1.04098E+00-5.62942E-01 4.10929E-01
 -1      1822-1.71662E-01 3.78472E+01 2.05979E+00 1.05112E+00-8.45029E-01 7.46133E-01
 -1      1823 7.46154E-02 4.18104E+01 1.00412E+00 6.91165E-02-2.01448E+00 1.36539E+00
 -1      1824 1.13412E+00 4.19898E+01 1.32296E+00-8.83660E-01-2.31550E+00 1.35553E+00
 -1      1825-5.23034E-01 3.72921E+01 2.98596E+00 9.49948E-01-1.08001E+00 1.34770E+00
 -1      1826-7.92008E-01 3.57069E+01 1.69866E+00 6.00933E-01-1.14104E+00 1.54481E+00
 -1      1827-1.57206E+00 3.84931E+01-2.95543E+00-1.30135E+00-9.55157E-01-1.29716E+00
 -1      1828 6.33858E-02 3.30430E+01-4.99136E+00-2.39274E+00-2.27007E-01-2.04032E+00
 -1      1829 6.86347E+00 3.43128E+01 8.14745E+00 2.13812E+00-1.47331E+00 1.36424E-02
 -1      1830 6.50788E+00 3.70937E+01 6.77342E+00 1.83687E+00-3.18699E+00 5.45936E-02
 -1      1831 8.31975E-01 3.67576E+01 2.38228E+00 1.38370E+00-7.20689E-01 9.76971E-02
 -1      1832-1.31727E-01 3.57950E+01 4.47787E-01 1.09975E+00-4.22188E-01 8.45119E-02
 -1      1833 6.17127E-01 3.71182E+01 1.23799E+00 1.13644E+00-6.14362E-01 1.72316E-01
 -1      1834-1.50977E-01 3.62458E+01 2.13270E-01 1.11079E+00-5.14397E-02 9.74223E-02
 -1      1835-1.08290E-01 3.47054E+01-1.71586E-02 1.13227E+00-3.96860E-01 2.53019E-02
 -1      1836-2.62171E-02 3.38984E+01-6.03204E-02 1.13816E+00-4.17995E-01 1.25718E-02
 -1      1837-1.23657E-01 3.50712E+01-4.86864E-02 1.19886E+00-1.20678E-01 8.60719E-02
 -1      1838 1.04545E-02 3.45407E+01-2.04922E-02 1.26006E+00-1.67334E-01 7.16415E-02
 -1      1839-7.68412E-02 3.34660E+01-4.49632E-02 1.10725E+00-4.11639E-01 1.48891E-02
 -1      1840-7.23503E-03 3.25113E+01-3.41088E-02 1.12979E+00-4.85094E-01 1.02499E-02
 -1      1841-3.81574E-02 3.35969E+01-1.92760E-02 1.37262E+00-2.40209E-01 4.21264E-02
 -1      1842-1.04046E-02 3.29253E+01-5.22174E-02 1.29086E+00-2.99325E-01 1.71638E-02
 -1      1843 8.22572E-03 3.19211E+01-8.61588E-03 1.14293E+00-4.97472E-01 6.59364E-03
 -1      1844-2.51852E-03 3.12818E+01-4.42572E-03 1.11016E+00-5.03393E-01 1.94345E-03
 -1      1845 2.33167E-02 3.21547E+01-1.31622E-02 1.28260E+00-3.02782E-01 2.48995E-02
 -1      1846-1.76425E-02 3.14029E+01-7.91551E-03 1.19852E+00-2.89376E-01 1.45588E-02
 -1      1847-1.78092E-02 3.06837E+01-1.05568E-02 1.10516E+00-4.97971E-01-5.21025E-03
 -1      1848 1.48238E-02 3.01063E+01 1.22801E-02 1.09790E+00-5.09991E-01 1.41312E-04
 -1      1849 1.21294E-04 3.05716E+01-1.16700E-03 1.31061E+00-2.85343E-01-4.98163E-03
 -1      1850 8.39654E-03 2.98207E+01-1.70693E-02 1.27803E+00-2.93975E-01-1.19254E-02
 -1      1851 4.20976E-02 2.92431E+01-5.62923E-02 1.09437E+00-5.11443E-01-2.95556E-03
 -1      1852-6.83761E-03 2.88766E+01-2.86678E-02 1.10289E+00-4.97594E-01-2.91898E-03
 -1      1853 3.53662E-02 2.86775E+01-1.54499E-02 1.19338E+00-2.90227E-01 1.38690E-02
 -1      1854 2.46197E-02 2.82781E+01-1.75328E-02 1.33423E+00-2.64006E-01-1.23307E-03
 -1      1855 5.42284E+00 2.68923E+01 6.30150E+00 4.23529E-01-1.18044E+00-1.53156E-02
 -1      1856 5.20997E+00 2.80855E+01 5.18001E+00-2.76492E-01-2.46120E+00-2.21095E-02
 -1      1857 7.67979E-01 2.86966E+01 1.61765E+00 1.43703E+00-7.42329E-01 1.23528E-01
 -1      1858-1.07060E-01 2.89463E+01 5.19390E-02 1.35192E+00-4.82776E-01 9.44765E-02
 -1      1859 4.92364E-01 2.99162E+01 7.60521E-01 1.30049E+00-5.83187E-01 3.36006E-01
 -1      1860-8.51589E-02 2.95795E+01 5.10791E-03 1.36288E+00-1.88968E-01 1.94049E-01
 -1      1861-9.46380E-02 2.90652E+01-2.41257E-01 1.27974E+00-4.39866E-01 4.47373E-02
 -1      1862-3.83622E-02 2.92590E+01-2.01535E-01 1.17024E+00-4.71568E-01 1.35469E-02
 -1      1863-1.06704E-01 2.96711E+01-1.52724E-01 1.30583E+00-1.48734E-01 7.68860E-02
 -1      1864-1.06176E-02 3.00679E+01-5.21399E-02 1.32243E+00-2.50640E-01 5.70989E-02
 -1      1865 6.55558E-03 2.93946E+01-1.36066E-01 1.09023E+00-5.21215E-01 4.18326E-03
 -1      1866 1.64437E-03 3.00124E+01-6.29410E-02 1.12852E+00-5.21587E-01 1.13853E-02
 -1      1867 1.26334E-02 3.01447E+01-5.38807E-02 1.28186E+00-3.39801E-01 3.57374E-02
 -1      1868 1.34776E-02 3.04159E+01-3.99075E-02 1.28802E+00-3.54708E-01 3.84294E-03
 -1      1869-4.84122E-03 3.03996E+01-3.04786E-02 1.15332E+00-5.37673E-01 1.37575E-03
 -1      1870 8.44086E-03 3.07779E+01-6.16886E-03 1.08345E+00-5.45692E-01-9.48102E-04
 -1      1871 1.25424E-02 3.07192E+01-9.13283E-03 1.31497E+00-3.75450E-01 1.30140E-02
 -1      1872 2.88464E-02 3.08639E+01-8.67837E-03 1.20071E+00-4.01926E-01 1.26248E-02
 -1      1873 1.81772E-02 3.12660E+01 8.56257E-03 1.10777E+00-5.46147E-01-8.87876E-04
 -1      1874-5.09908E-03 3.16574E+01 3.50890E-03 1.10860E+00-5.41513E-01 2.85937E-04
 -1      1875 2.05083E-03 3.11023E+01-1.20016E-02 1.32950E+00-3.74460E-01-5.23969E-03
 -1      1876-3.03280E-03 3.13122E+01 1.30854E-02 1.32720E+00-3.56955E-01-1.14647E-02
 -1      1877-3.02566E-02 3.23085E+01 6.50044E-02 1.09038E+00-5.41537E-01-5.38300E-03
 -1      1878 5.69038E-03 3.25253E+01 2.95667E-02 1.09750E+00-5.66004E-01-5.23690E-04
 -1      1879-4.34766E-02 3.16466E+01 1.50439E-02 1.27621E+00-3.63220E-01 9.24029E-03
 -1      1880-1.74870E-03 3.17206E+01 5.82662E-02 1.36373E+00-3.73813E-01-3.64556E-03
 -1      1881-1.05224E-02 2.82725E+01-4.39739E-02 1.12279E+00-4.97859E-01-1.23097E-03
 -1      1882 8.17989E-02 2.72331E+01-9.68770E-02 1.07747E+00-4.88903E-01-1.73999E-02
 -1      1883-2.90425E-02 2.75066E+01-7.57723E-02 1.29236E+00-3.01870E-01 2.37485E-03
 -1      1884 1.24739E-01 2.67992E+01-1.93409E-02 1.37456E+00-2.76026E-01-2.45219E-02
 -1      1885 1.43180E-02 2.70237E+01-4.55691E-02 1.10053E+00-4.71744E-01-1.11757E-02
 -1      1886-1.22773E-02 2.64883E+01-8.12006E-02 1.10038E+00-5.15687E-01 1.23065E-02
 -1      1887-4.85648E-02 2.58323E+01-8.42030E-02 1.40876E+00-2.78363E-01-5.56766E-02
 -1      1888 1.92734E-02 2.54598E+01-3.10066E-02 1.26472E+00-3.10969E-01-2.74034E-02
 -1      1889 2.13608E-03 2.57777E+01-9.93571E-02 1.03701E+00-4.91570E-01 1.20284E-03
 -1      1890 1.13153E-02 2.51698E+01-4.25531E-02 1.11021E+00-5.13366E-01 1.44033E-02
 -1      1891 6.67924E-02 2.44532E+01-4.04113E-02 1.46526E+00-3.15894E-01-8.12393E-02
 -1      1892-3.53833E-03 2.37032E+01-1.31955E-01 1.32749E+00-3.42842E-01-3.88876E-02
 -1      1893 1.89493E-02 2.47826E+01 6.67737E-02 1.14625E+00-5.84023E-01 7.80072E-02
 -1      1894 5.10458E-02 2.36620E+01 2.82390E-01 1.18125E+00-4.92849E-01 1.19065E-01
 -1      1895 9.06221E-02 2.32577E+01 2.61791E-03 1.34472E+00-3.45733E-01 4.12455E-02
 -1      1896 8.56246E-02 2.21060E+01 1.69711E-01 1.62785E+00-1.33123E-01 4.20176E-02
 -1      1897-3.64192E-02 2.27249E+01 1.08087E+00 1.35934E+00-4.33746E-01 2.96944E-01
 -1      1898-4.53919E-01 2.08980E+01 2.38155E+00 1.85030E+00-2.77702E-01 5.24791E-01
 -1      1899-2.90185E-01 2.11194E+01 3.14101E-01 1.57409E+00 2.50275E-01 8.24352E-03
 -1      1900-3.61031E-01 1.99510E+01 1.20960E+00 1.84672E+00 1.14595E+00 3.10448E-02
 -1      1901-1.61519E+00 1.76300E+01 4.57656E+00 2.88644E+00-9.95017E-02 6.62749E-01
 -1      1902-4.72603E+00 1.25137E+01 5.62063E+00 5.71536E+00-2.95661E-01 1.02632E+00
 -1      1903-1.53430E+00 1.96901E+01 2.31964E+00 2.46808E+00 3.28864E+00-4.49836E-01
 -1      1904-3.40843E+00 2.15719E+01 2.90325E+00 2.54424E+00 5.44634E+00-2.28843E+00
 -1      1905-3.77411E+00 1.50297E+01-6.10275E+00 5.63210E+00-1.36393E+00 6.69485E-01
 -1      1906 1.23263E+00 2.32054E+01-4.81462E+00-5.69629E-02 6.13046E+00-1.06065E+00
 -1      1907-4.52800E-02 3.29442E+01-7.61075E-04 1.10705E+00-5.30887E-01 2.10971E-03
 -1      1908-5.96342E-02 3.34208E+01 3.90510E-02 1.16454E+00-5.41402E-01-2.74363E-04
 -1      1909 6.34270E-03 3.19299E+01 8.95937E-02 1.27685E+00-3.39395E-01-3.01956E-02
 -1      1910-1.17354E-01 3.27554E+01 2.08145E-02 1.30768E+00-3.73571E-01-8.34168E-03
 -1      1911-6.91741E-03 3.38176E+01 2.34124E-02 1.18031E+00-5.44867E-01 3.71115E-03
 -1      1912 7.05082E-03 3.42004E+01 3.14218E-02 1.15807E+00-5.34066E-01 7.51327E-03
 -1      1913-5.45284E-02 3.22563E+01 5.10490E-02 1.43388E+00-3.57564E-01-5.81579E-02
 -1      1914 2.57956E-02 3.25115E+01 1.20038E-01 1.31907E+00-3.28250E-01-9.72956E-03
 -1      1915-4.98550E-02 3.47288E+01 5.69257E-02 1.14004E+00-5.60026E-01 3.27568E-02
 -1      1916-3.69023E-03 3.52208E+01 5.86851E-02 1.12698E+00-5.65054E-01 5.95798E-02
 -1      1917-9.77551E-02 3.26779E+01 1.15930E-02 1.47729E+00-4.01946E-01 5.68871E-03
 -1      1918-9.79887E-03 3.35285E+01 7.95461E-02 1.35978E+00-3.64307E-01-4.96926E-03
 -1      1919-9.76772E-02 3.55277E+01 1.64599E-01 1.18520E+00-4.65626E-01 1.00490E-01
 -1      1920-4.50348E-02 3.60214E+01 5.16582E-01 1.13822E+00-3.46133E-01 1.60138E-01
 -1      1921-2.18460E-02 3.35883E+01 2.45146E-01 1.25428E+00-2.62822E-01 7.25318E-02
 -1      1922-1.60973E-01 3.51351E+01 2.92804E-01 1.42125E+00-2.43124E-01 5.06791E-02
 -1      1923-1.14532E-01 3.61057E+01 1.00768E+00 1.33468E+00-7.71335E-02 3.52395E-01
 -1      1924-2.53323E-01 3.60983E+01 2.32114E+00 1.53165E+00 4.65742E-01 5.57418E-01
 -1      1925-1.69413E-01 3.39255E+01 5.16955E-01 1.58563E+00 2.33562E-01 1.98285E-02
 -1      1926-4.92057E-01 3.67863E+01 1.13059E+00 1.40423E+00 1.29905E+00 4.87522E-02
 -1      1927-7.55782E-01 3.54606E+01 3.63781E+00 1.49673E+00 1.11792E+00 5.51426E-01
 -1      1928-1.96382E+00 3.39252E+01 2.93380E+00 1.60687E+00 1.53662E+00 3.58787E-01
 -1      1929-1.38013E+00 3.61307E+01 1.90806E+00 1.65564E+00 2.43499E+00-2.58615E-01
 -1      1930-1.27491E+00 3.96353E+01 2.25816E+00 3.94365E-01 3.90826E+00-9.02720E-01
 -1      1931-2.71328E-02 3.23334E+01-5.67290E+00-1.44709E+00 9.41902E-01-9.30019E-01
 -1      1932 4.06001E-01 3.72767E+01-2.82093E+00-3.04841E+00 2.48660E+00-6.13774E-02
 -1      1933-1.39040E+00 4.22584E+01 2.05663E+00 7.67717E-01 2.56361E+00-1.12361E-02
 -1      1934 4.50900E-02 3.96983E+01-1.10051E-01 6.59929E-01-1.84555E-01-4.37654E-02
 -1      1935-1.03343E-02 2.66711E+01-2.04649E-01 7.41138E-01-4.82479E-01-3.53448E-02
 -1      1936-8.60063E-02 4.10358E+01 1.02315E-01 7.97414E-01-5.50624E-01 4.74569E-02
 -1      1937-8.60827E-02 3.45521E+01 9.47298E-02 7.75307E-01-4.89447E-01-9.80028E-03
 -1      1938 2.66425E-01 1.73546E+01 9.69239E-02 9.47137E-01-7.13291E-01-7.66144E-02
 -1      1939 1.23981E+00 3.70507E+01-5.85479E+00 1.02357E-01 1.36792E+00-1.16575E+00
 -1      1940-6.14463E-02 4.67798E+01 2.88170E-01 7.92231E-01-4.94257E-02 1.55080E-01
 -1      1941 1.38100E-02 3.17708E+01 6.34467E-02 8.96685E-01-2.91642E-01-9.62203E-04
 -1      1942 1.44393E-02 3.48007E+01-1.22159E-01 8.63806E-01-1.08087E-01-1.36724E-02
 -1      1943-1.61518E-01 3.85244E+01 3.33046E-02 7.66917E-01-4.56977E-01 2.31759E-02
 -1      1944 2.62487E-02 2.94289E+01-2.72160E-02 8.22922E-01-5.21769E-01-1.04085E-02
 -1      1945-3.39625E-01 3.89946E+01 3.26854E-02 4.51953E-01-5.55570E-01 1.02002E-02
 -1      1946 7.06127E-01 5.21212E+01-5.02706E+00-2.51067E+00 3.48858E+00 1.94304E-01
 -1      1947 9.94569E-02 2.63901E+01-1.98645E-01 7.17697E-01-5.51419E-01-5.47141E-02
 -1      1948-3.87006E-01 4.82240E+01 2.05309E+00 8.10508E-01-7.13951E-02 3.52282E-01
 -1      1949-3.15965E+00 4.60433E+01-4.18053E+00-2.67802E+00-3.10599E+00-1.82579E+00
 -1      1950 4.79132E-02 4.34229E+01 6.60405E-02 1.15621E+00-4.21208E-01 6.57455E-02
 -1      1951 6.66125E-02 2.86474E+01-6.45439E-02 7.80165E-01-2.34034E-01-2.54586E-02
 -1      1952-1.22392E-02 2.76346E+01-9.00841E-02 9.01248E-01-2.44054E-01 4.79117E-02
 -1      1953 2.48402E-01 2.37962E+01-1.53169E-01 7.69883E-01-3.20638E-01 3.21917E-03
 -1      1954 7.50427E+00 3.92707E+01 9.91635E+00 4.05277E+00 1.90948E+00 4.93107E-01
 -1      1955 1.94843E-02 3.33372E+01 6.77277E-02 7.15939E-01-1.83616E-01-1.60234E-02
 -1      1956 6.08720E+00 2.37537E+01 5.67243E+00-1.31931E+00 3.80350E+00 4.92833E-01
 -1      1957 3.88083E+00 2.05321E+01 4.94826E+00-9.79344E-01 8.19791E-01 4.65588E-02
 -1      1958 1.39914E+00 1.83623E+01 1.62625E+00-7.95268E-01 1.38040E+00 4.05423E-01
 -1      1959 7.36343E+00 2.84479E+01 6.65010E+00-2.34905E+00-4.78309E+00-5.25065E-01
 -1      1960 5.32211E+00 3.90121E+01 8.87322E+00 2.94247E+00-8.98160E-01 5.06934E-02
 -1      1961 2.74166E+00 2.33444E+01 3.18047E+00-1.28911E+00-2.42966E+00-3.94603E-01
 -1      1962 2.58475E+00 1.73566E+01 2.01719E+00 5.27342E-01 1.72649E+00 1.44559E+00
 -1      1963 8.59184E-02 2.10391E+01-1.17559E-01 8.33299E-01-5.71157E-01-4.23156E-02
 -1      1964-2.63699E-01 3.53948E+01-6.12777E-02 7.81313E-01-7.14530E-01 4.37456E-02
 -1      1965 4.84847E+00 2.10346E+01 5.90456E+00-1.16575E+00 1.75667E-01-1.24599E-01
 -1      1966 2.40798E+00 2.11988E+01 4.06020E+00-1.15727E+00-1.81070E+00 1.20419E-01
 -1      1967 3.45107E+00 1.77434E+01 4.72979E+00-2.20261E+00 1.03893E-01 8.82300E-02
 -1      1968-1.94447E-03 3.57107E+01 1.37692E-01 8.31352E-01-4.98283E-01 4.20006E-02
 -1      1969 4.64766E+00 2.88427E+01 2.78087E+00 9.48704E-01 2.17775E+00-5.91551E-01
 -1      1970 8.12306E+00 2.90094E+01 8.24239E+00 1.51817E+00 1.59099E+00 1.53140E-01
 -1      1971 3.39364E+00 3.81867E+01 6.12234E+00 2.84880E+00 3.03777E+00-4.42208E-02
 -1      1972 2.44847E-01 3.91802E+01 2.79124E+00 7.86506E-01-3.44869E-01 8.51445E-03
 -1      1973 3.71229E-01 1.62055E+01-9.71948E-02 8.40427E-01-3.26501E-01 6.42828E-02
 -1      1974 5.61713E+00 3.89446E+01 8.94688E+00 3.31162E+00-2.35504E+00 4.06326E-01
 -1      1975 2.53785E-01 2.05294E+01-8.41656E-02 7.13479E-01-2.42695E-01-1.06735E-02
 -1      1976 2.83646E-01 1.89980E+01-1.24737E-01 9.69416E-01-6.28283E-01 1.92111E-02
 -1      1977 3.79211E-02 2.43037E+01-2.87923E-01 1.06828E+00-7.92920E-01-5.75133E-02
 -1      1978 3.91043E-01 1.88932E+01-6.88649E-02 9.78576E-01-3.26337E-01-2.99705E-01
 -1      1979-2.65383E+00 5.11378E+01-4.97058E+00-6.30218E-01-4.05693E+00-7.29576E-01
 -1      1980-1.67075E-01 4.67809E+01-6.82205E-01-2.63722E+00-2.46602E+00-1.15734E+00
 -1      1981-3.06911E+00 6.50962E+01 1.22275E+00-1.00750E+01-7.99412E+00-1.12687E+00
 -1      1982 9.42750E-01 1.63638E+01 3.63441E-01 8.89647E-01-1.39078E-01-2.82388E-02
 -1      1983 4.19466E-01 1.88267E+01 1.11437E+00 7.33892E-01-1.48908E+00 3.73104E-01
 -1      1984 1.92363E+01-9.87934E+00-2.68627E+01 2.64694E-02 9.42606E+00 4.08034E+00
 -1      1985-4.34011E-01 3.15938E+01-4.48852E+00-2.53498E+00-3.80349E+00-3.58351E+00
 -1      1986 1.93904E+00 3.30374E+01-5.26093E+00-2.90104E+00 1.89320E+00-2.89806E-01
 -1      1987-7.48370E-02 3.21353E+01-2.44728E-02 9.64517E-01-4.49970E-01 4.35791E-02
 -1      1988-1.05334E+01-1.94724E+01-1.60340E+01 1.37186E+01-5.10244E+01 1.10001E+00
 -1      1989-1.62353E+01-3.12497E+01-1.04276E+01 2.52087E+01-7.60161E+00 2.54846E+00
 -1      1990 1.16951E+01-1.43800E+02-7.57956E+01 8.11153E+01 7.54141E+01 5.97364E-01
 -1      1991-1.99064E-01 2.64099E+01-2.32023E-01 7.10109E-01-2.56991E-01-2.39243E-02
 -1      1992 3.44595E-02 1.04314E+01 2.75508E+00 1.51877E+00-1.05344E+00 3.71547E-01
 -1      1993-5.95810E-02 3.16024E+01-1.20483E-02 7.82454E-01-5.19172E-01-9.91492E-03
 -1      1994-2.18660E+00 6.52337E+01-8.58279E-01 4.33858E+00 5.01186E+00-7.49664E-01
 -1      1995-1.82178E+00 4.48305E+01-2.73494E+00-2.82868E+00-1.92890E+00-2.16661E+00
 -1      1996 3.64416E-02 2.96443E+01-3.86350E-02 8.45587E-01-5.82726E-01 2.18255E-03
 -1      1997-3.09915E+00 4.73397E+01-7.87978E+00 4.21845E+00 2.31548E+00-2.07003E+00
 -1      1998 4.28042E+00 4.91662E+01-2.60490E+00-4.69075E+00 4.47407E+00 1.36133E+00
 -1      1999 1.01205E-02 2.98210E+01 2.50956E-02 8.16803E-01-4.79129E-01-2.19825E-02
 -1      2000-3.20733E-02 3.26880E+01-1.12703E-02 8.36765E-01-4.98805E-01 8.16017E-03
 -1      2001 8.41635E+00 4.05838E+01-1.43621E-01-5.54487E+00 4.16006E+00 1.49608E+00
 -1      2002 7.20771E-02 2.92315E+01-1.67878E-02 1.03709E+00-4.23379E-01-3.59375E-02
 -1      2003-9.20834E-01 3.18076E+01-5.29315E+00-2.60246E+00 6.84455E-01-3.90075E+00
 -1      2004-3.36419E+00 2.84401E+01-3.87301E+00-1.86857E+00-2.67209E+00 6.10319E-01
 -1      2005-1.51187E+00 5.71428E+00 3.85407E+00 4.03413E+00 9.87239E+00-2.07397E+00
 -1      2006 5.90297E-01 1.02686E+01 5.24947E-01 9.52123E-01 6.81186E-01 3.85296E-02
 -1      2007 6.23691E-01 3.08367E+01 5.88186E-02-4.40212E-01-1.36276E+00 6.43265E-01
 -1      2008 1.30466E-01 4.34628E+01 6.49989E-01 8.23256E-01 3.44785E-01 8.91612E-02
 -1      2009-8.93700E-01 1.12043E+01-1.07914E+00 1.12301E+00-1.13339E+01 3.08152E+00
 -1      2010 4.55853E-01 2.79499E+01-7.67886E-01-1.84353E+00-7.94717E+00 8.05258E-01
 -1      2011 3.77011E+00 2.98762E+01 5.07681E+00 6.17732E-01-2.36261E+00 1.07901E-01
 -1      2012 8.93055E-02 2.75392E+01-3.27240E-02 9.38455E-01-3.04063E-01-7.40991E-02
 -1      2013 9.68540E-01 3.52339E+01-6.28764E+00-2.19387E+00 9.41271E-01-9.16086E-02
 -1      2014 3.44066E-01 2.36725E+01 2.47992E-01 9.71049E-01-4.01184E-01 2.52758E-01
 -1      2015 2.00228E+00 1.93891E+01 2.81939E+00-2.73003E-01 1.32810E-01-8.92537E-02
 -1      2016 5.10285E+00 4.61368E+01-4.83908E+00-5.20744E+00 5.04706E+00 2.70945E+00
 -1      2017 3.86704E+00 2.82191E+01 5.15224E+00 9.54477E-01-3.43727E-01-9.70005E-02
 -1      2018 5.73583E-01 1.36980E+01-9.24069E+00 4.62003E+00-1.74793E+01 2.43447E+00
 -1      2019 6.98124E-01 2.45153E+01 1.26917E+00 1.23595E+00-8.37756E-01 8.20369E-02
 -1      2020 3.14306E+00 2.11349E+01 4.30485E+00-6.26971E-01-4.31813E-01 1.58258E-01
 -1      2021-6.98259E-01 5.22421E+01 2.00578E+00 4.33101E-02 4.56666E+00-5.62132E-01
 -1      2022 5.25251E-02 3.55743E+01 9.99647E-01 3.31330E-01 1.07447E+00-6.01883E-01
 -1      2023 4.56613E+00 3.18289E+01 2.85262E+00 4.76912E-01-3.03123E+00-2.33416E-01
 -1      2024-2.88046E-01 4.26943E+01 9.85285E-01 9.45014E-01 7.19609E-02 2.51552E-01
 -1      2025 9.37312E+00 3.72484E+01 7.52050E+00 1.27333E+00-5.29713E+00-4.28993E-01
 -1      2026 1.59219E+01 5.54947E+01 1.51406E+01 6.83320E+00-8.45845E+00-7.56508E-01
 -1      2027-2.75979E-01 3.81883E+01-2.75489E-02 7.32047E-01 2.95642E-02 9.24493E-03
 -1      2028-3.60662E-01 4.12619E+01 2.41509E-01 8.77172E-01-5.69004E-01 4.96079E-02
 -1      2029 3.50596E-01 4.10240E+01 1.26295E+00 5.91038E-01-6.15911E-01 5.70324E-02
 -1      2030 3.72081E+00 4.26765E+01 5.56846E+00 2.60906E+00-3.39164E+00 4.38725E-01
 -1      2031 6.43418E-03 3.76232E+01 2.78224E-01 6.79297E-01-5.19026E-01-6.30181E-02
 -1      2032 9.85608E+00 4.17109E+01 8.57173E+00 2.01491E+00-5.80749E+00 7.96163E-01
 -1      2033-4.69409E-02 3.77901E+01 1.06961E-01 8.11560E-01-1.90759E-01-8.79159E-02
 -1      2034-8.44964E-02 3.34057E+01-1.82550E-02 7.47214E-01-1.82842E-01-8.16257E-03
 -1      2035-1.79318E-01 3.71301E+01 2.48281E-02 7.38494E-01-5.88104E-01-5.99768E-03
 -1      2036 3.38661E-02 2.42158E+01-1.66428E-01 7.99179E-01-2.25527E-01 1.01839E-01
 -1      2037 2.65004E-02 4.24184E+01 4.82945E-01 9.19048E-01-4.38965E-01 3.86495E-01
 -1      2038-2.21917E-02 3.41192E+01-6.15533E-02 1.01479E+00-2.97690E-01-3.26313E-02
 -1      2039-8.80281E-03 3.02463E+01-3.68259E-02 9.02335E-01-2.75936E-01 6.17961E-03
 -1      2040-4.40666E-01 4.07329E+01 8.97822E-02 1.22280E+00-4.54837E-01 1.16259E-01
 -1      2041-3.96440E-02 2.87173E+01-8.27787E-02 7.37879E-01-1.86510E-01-9.81175E-04
 -1      2042-9.25779E-03 2.64259E+01-7.46441E-02 8.35915E-01-2.27283E-01 7.43710E-02
 -1      2043-2.28799E-01 3.73719E+01 2.23196E-02 6.31294E-01-6.23095E-01 1.37536E-02
 -1      2044 9.14794E+00 4.16165E+01 1.13146E+01 5.10333E+00 3.35668E+00-8.90790E-01
 -1      2045-6.99840E-02 3.77573E+01 1.93753E-01 9.30196E-01-4.82474E-01 5.12187E-02
 -1      2046 2.00171E-02 3.55846E+01 7.18124E-02 8.36432E-01-2.25146E-01-5.87456E-02
 -1      2047 1.69194E+00 4.70011E+01-1.17967E+00-1.16480E+00 3.55201E+00-1.56947E-02
 -1      2048 1.03576E+01 4.51383E+01 1.23694E+01 5.20898E+00 6.94157E+00 3.90764E-01
 -1      2049-3.80757E+00 4.96432E+01-5.36459E+00-5.68564E-01 2.08352E+00-2.02729E+00
 -1      2050-4.43183E-01 4.39798E+01 5.13725E-01 3.69243E-01-2.23233E-01 2.47007E-01
 -1      2051-2.56452E+00 4.59361E+01-5.99267E+00 2.57359E+00 1.13860E+00-1.61114E+00
 -1      2052 6.25638E+00 2.61456E+01 4.69419E+00-6.80825E-01 3.34225E+00-4.32471E-01
 -1      2053-7.97962E-02 3.71137E+01 1.27752E+00 6.77310E-01-3.39365E-03 2.18769E-01
 -1      2054-2.05234E+00 4.00184E+01-9.13049E+00-5.06821E-01 2.82918E-01-2.14135E+00
 -1      2055 8.59761E+00 3.43293E+01 7.87062E+00 1.86604E+00 5.49801E+00-8.39052E-01
 -1      2056 2.39106E-02 3.32615E+01-9.72419E-03 8.60958E-01-5.77023E-01 4.82458E-02
 -1      2057-2.41421E+00 3.41603E+01-8.40191E+00-6.33117E-01 8.14915E-01-2.97403E+00
 -1      2058 1.25845E+00 3.95339E+01-7.95022E-02-3.43405E+00-3.87265E+00 2.92032E-01
 -1      2059-2.81787E-02 3.25467E+01 2.00233E-02 7.84843E-01-4.64562E-01-7.96059E-03
 -1      2060-2.94665E-01 4.88336E+01 6.25494E-01 6.50563E-01-2.06995E-01 1.51095E-01
 -1      2061-4.51605E-02 3.24017E+01-1.07442E-02 8.47597E-01-5.91501E-01-3.81730E-03
 -1      2062 2.02070E-02 3.04530E+01-1.77239E-02 7.95725E-01-5.09241E-01 2.04334E-02
 -1      2063 3.42078E-01 5.10071E+01 1.85032E+00 1.60839E-02-1.50381E+00 8.06147E-01
 -1      2064 5.06896E-01 4.60861E+01-6.67631E-01 6.65163E-01-1.47369E+00-9.22505E-01
 -1      2065 1.41144E-01 2.75429E+01-6.48487E-02 7.41502E-01-4.81101E-01-2.02558E-02
 -1      2066 3.89275E-01 6.61275E+01-3.71947E+00 4.57068E+00-9.65634E+00 7.35179E-01
 -1      2067-3.62750E-02 2.96128E+01-8.07791E-02 7.89581E-01-5.29018E-01-3.21073E-02
 -1      2068-8.16981E-03 2.72585E+01 1.11702E-01 8.09769E-01-9.72306E-02-8.73544E-03
 -1      2069 3.24156E-01 2.31371E+01-7.14200E-02 4.31553E-01-5.68840E-01 1.41482E-02
 -1      2070 3.36437E-02 2.43120E+01-2.35198E-01 8.98720E-01-4.71053E-01-7.01983E-02
 -1      2071 4.36209E-01 2.10333E+01-2.01475E-01 7.69648E-01-5.92020E-01-3.85191E-02
 -1      2072 1.71308E-01 2.49458E+01-4.53127E-02 7.36946E-01-5.71913E-01 2.33912E-02
 -1      2073-4.67616E-02 1.97955E+01-2.33822E-01 8.64115E-01-6.96296E-01-2.93837E-01
 -1      2074 2.01649E-01 2.46455E+01-5.29069E-02 6.09337E-01-5.99718E-01-1.09473E-02
 -1      2075 5.91245E-02 2.50054E+01-7.88939E-02 7.57008E-01-4.55558E-01-5.67917E-02
 -1      2076 4.49987E-01 1.83338E+01 9.95239E-02 4.10088E-01-1.44419E+00 2.33002E-01
 -1      2077 2.21888E-01 3.57020E+01 2.85392E-01 7.45001E-01-2.88797E-01 1.94771E-02
 -1      2078-4.30418E+00-2.30934E+00-2.05993E+01 1.25984E+01 1.93770E+01-3.86030E+00
 -1      2079-1.55087E-01 3.58214E+01-6.04111E-02 7.40586E-01-6.24473E-01 5.61344E-02
 -3
    1PSTEP                         3           1           1          
  100CL  101 1.000000000        2060                     0    1           1
 -4  TOSTRAIN    6    1
 -5  EXX         1    4    1    1
 -5  EYY         1    4    2    2
 -5  EZZ         1    4    3    3
 -5  EXY         1    4    1    2
 -5  EYZ         1    4    2    3
 -5  EZX         1    4    3    1
 -1         3-1.71912E-04 4.34023E-04-8.94268E-05 1.24727E-04 8.47990E-05-1.00705E-05
 -1         4-8.85983E-05 4.59599E-04-1.87017E-04 7.79853E-05-1.30223E-04 1.46531E-05
 -1         6-8.08427E-05 3.91133E-04-1.48898E-04-4.15943E-05 5.65670E-05 5.57488E-05
 -1         8-1.67403E-04 4.17528E-04-8.31078E-05-1.32662E-04-8.89514E-05-1.49214E-05
 -1        12-2.85275E-05 1.95287E-04-9.39603E-06 3.45368E-05 5.22514E-05 2.04970E-06
 -1        14-8.12388E-06 5.46330E-05-2.02600E-05 8.25267E-06-2.63541E-06 7.74904E-06
 -1        18-1.68769E-05 1.16041E-04 0.00000E+00-2.76900E-05-3.75395E-05 3.67025E-06
 -1        22-1.58473E-05 2.32447E-04-2.99244E-05 5.05972E-05-5.37607E-05-8.91601E-06
 -1        28-1.20233E-04 2.89133E-04-9.38098E-05 3.53430E-05 3.07074E-05-1.84053E-05
 -1        29-1.08846E-04 3.29127E-04-1.18128E-04 6.35614E-05 1.58184E-05 1.54934E-06
 -1        30-8.97519E-05 2.76185E-04-1.16125E-04 2.67418E-05 1.54009E-06-1.21583E-05
 -1        31-1.12601E-04 3.33011E-04-1.15989E-04 6.56072E-05 2.03787E-05-8.47511E-06
 -1        32-1.08155E-04 2.91289E-04-1.01782E-04 4.79420E-05 2.30009E-05-1.58452E-05
 -1        33-1.04017E-04 2.84943E-04-1.05262E-04 3.71201E-05 1.62614E-05-1.30434E-05
 -1        34-1.10909E-04 3.25222E-04-1.15554E-04 3.26453E-05-4.40248E-05 6.54453E-06
 -1        35-7.55189E-05 3.82988E-04-1.52334E-04-7.03324E-05 7.04244E-05 8.57653E-05
 -1        36-2.51195E-05 2.81030E-04-1.35058E-04-4.86602E-05 4.30835E-05 3.89083E-05
 -1        37-3.70063E-05 2.80553E-04-1.39272E-04-3.54877E-05 4.29264E-05 2.81481E-05
 -1        38-6.02869E-05 2.80244E-04-1.23552E-04-3.08688E-05 3.85130E-05 1.09268E-05
 -1        39-1.00374E-04 3.12256E-04-1.17475E-04 1.73391E-05 3.03257E-05-1.94453E-06
 -1        40-1.27216E-04 2.75829E-04-7.83761E-05-6.21789E-05-4.58844E-05-2.52184E-05
 -1        41-8.55605E-05 2.72145E-04-9.78472E-05-8.09193E-05-6.07571E-05-2.18732E-05
 -1        42-4.52869E-05 1.25520E-04-7.42502E-05-1.06309E-04-1.54720E-04-6.12888E-05
 -1        43 1.97966E-04-5.20414E-04 1.62747E-05 2.02014E-04-4.94300E-04-1.37277E-04
 -1        44 1.06392E-03-2.08320E-03-1.93024E-04 1.53726E-03 5.30048E-04-1.70795E-04
 -1        45 4.87164E-04-8.11814E-05-3.01739E-04 3.55877E-04 3.81880E-04 1.72728E-04
 -1        46-9.52190E-05 2.99848E-04-3.86616E-05-6.39286E-05 1.06680E-04 1.49077E-04
 -1        47-8.40643E-05 3.21591E-04-1.49758E-04 3.41214E-05-6.29311E-05 1.51104E-05
 -1        48-9.20284E-05 2.87327E-04-1.17304E-04-3.85229E-06-3.83635E-05 2.28048E-06
 -1        49-8.39647E-05 2.55233E-04-1.02052E-04-1.60254E-05-1.92429E-05-1.28045E-05
 -1        50-8.48173E-05 2.91992E-04-1.07869E-04-1.96401E-05-3.41413E-05-2.51181E-05
 -1        51-1.12523E-04 3.56690E-04-1.17674E-04-5.37533E-05-5.24562E-05-1.73840E-05
 -1        52-1.02435E-04 3.80300E-04-1.04415E-04-6.64808E-05-3.81384E-05-5.26139E-06
 -1        53-5.80219E-05 2.37342E-04-8.02911E-05-2.20189E-05-3.08294E-05 5.79489E-07
 -1        54-4.93092E-05 1.96285E-04-6.60079E-05-1.04008E-05-2.78950E-05 3.12917E-06
 -1        55-4.20416E-05 1.46734E-04-4.54822E-05-4.82923E-06-2.29077E-05 3.34479E-06
 -1        56-3.60405E-05 1.15717E-04-3.58188E-05 1.20716E-06-1.64357E-05 2.57305E-06
 -1        57-3.17058E-05 1.06791E-04-3.22437E-05 4.22716E-06-1.01855E-05 2.18101E-06
 -1        58-2.64428E-05 9.05405E-05-3.04656E-05 5.10313E-06-6.09773E-06-9.68809E-07
 -1        59-2.83926E-05 9.50574E-05-3.09471E-05 4.46120E-06-6.63145E-06 8.87022E-10
 -1        60-2.94123E-05 9.24362E-05-2.80714E-05 6.56651E-06-3.98241E-06 2.66979E-06
 -1        61-2.26589E-05 8.10063E-05-2.77864E-05 6.04959E-06-3.13071E-06 2.24690E-06
 -1        62-2.58529E-05 9.36923E-05-3.08490E-05 7.29237E-06-1.41834E-06 3.68695E-06
 -1        63-2.74425E-05 9.16293E-05-3.01154E-05 5.07397E-06-3.45918E-06 8.31061E-07
 -1        64-2.87234E-05 9.79972E-05-3.12028E-05 4.68265E-06-2.58358E-06-3.88293E-07
 -1        65-2.89907E-05 9.89862E-05-3.18122E-05 5.99666E-06-2.57416E-06 1.97727E-06
 -1        66-3.13366E-05 1.02103E-04-3.23930E-05 4.77395E-06-2.59930E-06 9.44756E-07
 -1        67-3.23156E-05 1.08448E-04-3.44561E-05 5.92330E-06-1.34478E-06 1.41332E-06
 -1        68-3.21041E-05 1.09477E-04-3.56125E-05 5.19856E-06-1.14325E-06-1.09306E-08
 -1        69-3.40597E-05 1.15450E-04-3.61503E-05 5.27514E-06-3.11622E-06-1.49904E-07
 -1        70-3.41047E-05 1.15176E-04-3.63257E-05 6.32652E-06-2.62517E-06 1.60163E-06
 -1        71-3.70831E-05 1.21166E-04-3.68990E-05 4.93183E-06-1.13141E-06 6.31036E-08
 -1        72-3.79873E-05 1.22988E-04-3.76975E-05 6.18075E-06-1.19295E-06 5.96134E-07
 -1        73-3.97379E-05 1.27292E-04-3.78997E-05 4.54532E-06-1.87426E-06 2.43668E-07
 -1        74-3.92300E-05 1.29919E-04-3.95824E-05 3.32971E-06-2.02738E-06 7.21597E-07
 -1        75-3.98866E-05 1.33485E-04-4.05525E-05 3.66519E-06-1.33694E-06 3.91507E-08
 -1        76-4.04903E-05 1.36113E-04-4.10240E-05 4.05294E-06-1.43720E-06 2.39402E-07
 -1        77-4.25656E-05 1.40828E-04-4.22752E-05 4.24374E-06-1.12883E-06 3.15794E-07
 -1        78-4.27351E-05 1.42684E-04-4.29792E-05 4.44480E-06-1.30362E-06-1.86731E-07
 -1        79-4.32882E-05 1.45651E-04-4.40402E-05 4.81821E-06-1.71271E-06-1.29645E-07
 -1        80-4.47052E-05 1.49482E-04-4.47715E-05 4.73905E-06-2.25617E-06-1.85158E-08
 -1        81-4.56120E-05 1.52776E-04-4.57649E-05 5.14028E-06-2.19304E-06-3.61134E-07
 -1        82-4.70728E-05 1.55399E-04-4.59748E-05 5.03629E-06-1.93008E-06 1.34864E-07
 -1        83-4.79163E-05 1.59309E-04-4.71904E-05 5.13981E-06-1.86289E-06 2.97705E-08
 -1        84-4.79627E-05 1.61987E-04-4.82188E-05 6.36491E-06-1.61176E-06-9.99416E-07
 -1        85-4.89398E-05 1.64103E-04-4.88145E-05 5.58457E-06-1.97262E-06-5.88194E-08
 -1        86-5.13288E-05 1.68552E-04-4.95401E-05 5.57978E-06-2.98895E-06-4.64996E-07
 -1        87-5.25605E-05 1.69926E-04-4.96226E-05 4.95840E-06-3.25616E-06 4.39653E-07
 -1        88-5.39053E-05 1.72957E-04-5.06010E-05 3.46401E-06-1.51089E-06 3.81034E-07
 -1        89-5.22617E-05 1.72212E-04-5.03462E-05 2.68508E-06-1.48663E-06-4.46295E-07
 -1        90-5.24608E-05 1.74908E-04-5.16370E-05 1.98067E-06-2.43135E-06-1.35716E-06
 -1        91-5.30274E-05 1.74586E-04-5.13147E-05 1.24523E-06-2.26127E-06-1.94823E-07
 -1        92-5.52147E-05 1.74368E-04-4.95295E-05 2.99659E-07-1.58757E-06 1.84123E-07
 -1        93-6.04737E-05 1.80506E-04-4.62471E-05-1.27793E-07 2.85127E-06-7.29552E-07
 -1        94-5.96078E-05 1.98537E-04-2.91868E-05 1.71316E-05 2.91410E-05-6.36446E-06
 -1        95-1.24400E-05 8.73620E-05-8.37447E-06-7.09183E-07 2.19978E-05 4.42661E-06
 -1        96-8.72768E-06 1.03032E-04-8.36739E-06-1.10094E-05 2.93507E-05-4.32383E-06
 -1        97-6.17103E-06 1.30831E-04 0.00000E+00 6.70872E-06 4.67175E-05-1.65623E-06
 -1        98-1.28964E-05 1.42655E-04-4.92164E-06 1.32763E-05 4.51057E-05-5.40421E-06
 -1        99-4.68767E-06 1.67496E-04-3.75841E-06 3.65934E-05 5.12557E-05 4.19751E-06
 -1       100-1.08661E-04 3.96399E-04-1.11010E-04 2.22868E-05-7.12140E-05 7.95078E-06
 -1       101-9.62246E-05 3.12230E-04-7.98782E-05 9.47717E-06-2.10803E-05 3.44455E-07
 -1       102-8.27383E-05 2.81034E-04-7.86537E-05 1.49994E-06-1.24231E-05 1.32260E-06
 -1       103-8.05082E-05 2.78578E-04-8.17876E-05 5.93625E-07-7.10212E-06 3.09729E-06
 -1       104-8.55828E-05 2.76844E-04-7.77090E-05-1.47532E-06-2.69879E-06 2.05525E-06
 -1       105-8.32056E-05 2.74181E-04-7.88581E-05 2.24203E-06-3.24947E-06 4.34328E-06
 -1       106-7.73999E-05 2.65029E-04-7.94380E-05 1.84855E-06-2.78960E-06 1.17292E-06
 -1       107-7.65337E-05 2.56100E-04-7.50709E-05 2.23730E-06-3.86501E-06-2.24473E-07
 -1       108-7.82736E-05 2.57939E-04-7.44928E-05 2.03191E-06-3.27360E-06-4.34714E-07
 -1       109-7.93083E-05 2.53962E-04-7.25114E-05 1.97956E-06 1.53899E-06-3.42147E-07
 -1       110-7.57636E-05 2.50297E-04-7.32680E-05 5.61633E-06 2.25271E-07 2.03169E-06
 -1       111-7.26576E-05 2.43218E-04-7.14376E-05 3.21280E-06 1.23861E-06-1.81458E-07
 -1       112-6.95006E-05 2.32163E-04-6.78084E-05 4.46620E-06 1.63788E-06-1.32743E-07
 -1       113-6.73995E-05 2.31059E-04-6.94307E-05 5.25894E-06-7.90029E-07 2.35424E-06
 -1       114-6.40445E-05 2.22541E-04-6.80058E-05 5.90849E-06-2.03597E-06 3.59142E-07
 -1       115-6.40095E-05 2.17906E-04-6.35669E-05 5.39475E-06-1.51975E-06-5.65827E-07
 -1       116-6.52933E-05 2.17123E-04-6.39896E-05 3.87980E-06-2.60567E-06 4.73361E-07
 -1       117-6.16219E-05 2.05496E-04-6.10498E-05 5.26593E-06-1.60337E-06 4.40871E-07
 -1       118-6.15990E-05 2.05627E-04-6.02736E-05 5.35351E-06-2.19498E-06-3.33252E-07
 -1       119-5.92123E-05 1.97838E-04-5.84706E-05 3.58667E-06-7.72146E-07 7.55786E-07
 -1       120-5.62582E-05 1.90232E-04-5.61298E-05 3.81619E-06-1.65351E-06 2.00725E-07
 -1       121-5.53964E-05 1.86553E-04-5.52782E-05 2.70117E-06 4.32561E-07 4.46749E-07
 -1       122-5.30121E-05 1.78534E-04-5.31754E-05 2.98953E-06 4.92703E-07 9.67111E-07
 -1       123-5.16802E-05 1.74042E-04-5.21963E-05 3.45793E-06-5.61204E-07 3.08661E-07
 -1       124-5.09936E-05 1.69065E-04-5.06313E-05 3.47364E-06-5.11011E-07-1.14573E-07
 -1       125-4.84841E-05 1.62077E-04-4.83927E-05 3.67609E-06-1.10816E-07 3.55217E-08
 -1       126-4.69844E-05 1.56602E-04-4.67311E-05 4.16262E-06-6.71958E-07 3.10684E-08
 -1       127-4.55284E-05 1.50816E-04-4.50645E-05 4.06827E-06-1.11931E-07-6.32230E-08
 -1       128-4.40340E-05 1.46873E-04-4.41967E-05 3.80319E-06-8.86419E-08-1.81478E-08
 -1       129-4.18798E-05 1.40042E-04-4.22527E-05 4.02889E-06 9.74537E-08-1.20070E-07
 -1       130-4.02428E-05 1.35397E-04-4.08074E-05 4.31724E-06-6.94930E-08 1.25199E-07
 -1       131-3.77905E-05 1.28178E-04-3.89057E-05 4.28749E-06-3.09611E-07 3.68369E-07
 -1       132-3.70335E-05 1.22306E-04-3.70133E-05 3.86594E-06-1.18036E-06-2.17708E-07
 -1       133-3.59164E-05 1.18171E-04-3.55612E-05 3.68700E-06-4.23896E-07-3.80828E-07
 -1       134-3.27147E-05 1.09223E-04-3.35595E-05 4.22640E-06-3.43614E-07-9.13156E-07
 -1       135-3.17718E-05 1.07822E-04-3.34181E-05 3.94380E-06-1.58391E-06-2.95870E-07
 -1       136-2.93826E-05 9.89161E-05-3.02458E-05 3.02198E-06-2.57113E-06-4.26261E-07
 -1       137-3.10035E-05 9.66517E-05-2.95927E-05 2.59480E-06-5.94304E-07 1.95652E-07
 -1       138-2.64173E-05 8.44196E-05-2.70000E-05 3.35366E-06 9.05898E-08-7.62261E-08
 -1       139-1.86230E-05 7.13155E-05-2.51638E-05 4.81425E-06-2.87174E-06-4.62214E-07
 -1       140-2.21622E-05 7.24847E-05-2.34362E-05 4.51457E-06-2.90373E-06-6.44849E-07
 -1       141-2.16309E-05 6.28824E-05-1.73202E-05 1.94040E-06-2.27560E-06-2.08935E-06
 -1       142-7.64495E-06 3.90149E-05-1.66324E-05 4.67147E-06-2.43556E-06-1.89961E-06
 -1       143-9.64393E-06 9.89913E-05-8.57454E-06-2.56771E-05-2.51168E-05 1.42026E-06
 -1       144 0.00000E+00 7.65080E-05-7.55709E-06-2.23704E-05-1.20305E-05-1.34457E-06
 -1       145 0.00000E+00 6.76067E-05 0.00000E+00-2.08398E-05-6.47868E-06 0.00000E+00
 -1       146-1.48615E-06 6.29347E-05-3.96944E-06-1.84686E-05-7.38260E-07 5.06209E-08
 -1       147 0.00000E+00 6.07123E-05-4.89344E-06-1.96226E-05 6.45711E-06-1.64189E-07
 -1       148 0.00000E+00 5.95104E-05 0.00000E+00-1.92840E-05 1.12121E-05 0.00000E+00
 -1       149 0.00000E+00 6.97391E-05-1.38763E-05-1.84691E-05 7.50649E-07 3.21945E-06
 -1       150-1.11058E-04 4.07062E-04-1.12405E-04 5.40436E-05 3.40049E-05-4.20172E-06
 -1       151-7.88863E-05 3.09898E-04-9.55014E-05 3.22019E-06 2.29316E-05-3.98536E-06
 -1       152-7.91167E-05 2.80258E-04-8.29409E-05-6.73071E-06 1.77240E-05-3.45810E-06
 -1       153-8.76623E-05 2.77858E-04-7.61873E-05 4.98855E-07 1.39477E-05-1.49899E-06
 -1       154-7.66518E-05 2.50241E-04-7.01463E-05 3.73758E-06 1.10472E-05 1.13399E-06
 -1       155-7.29224E-05 2.40908E-04-6.75734E-05 6.99312E-06 6.48601E-06-1.51151E-06
 -1       156-7.29203E-05 2.36669E-04-6.63921E-05 7.09187E-06 2.40218E-06 2.90892E-06
 -1       157-6.55799E-05 2.14694E-04-6.11095E-05 5.79274E-06-6.28906E-07 1.01205E-06
 -1       158-6.23764E-05 2.08558E-04-6.08269E-05 7.05712E-06-8.17564E-07-1.68547E-06
 -1       159-6.69688E-05 2.17906E-04-6.18504E-05 5.93232E-06-2.08817E-06-1.46775E-06
 -1       160-6.41530E-05 2.03598E-04-5.86381E-05 6.54653E-06-5.15108E-07-2.26488E-06
 -1       161-6.24680E-05 2.03609E-04-5.69257E-05 5.87966E-06-2.16061E-06-7.39516E-07
 -1       162-6.00068E-05 1.97094E-04-5.66920E-05 4.79965E-06-3.32985E-06-1.07208E-07
 -1       163-5.97511E-05 1.96387E-04-5.67549E-05 6.10653E-06-3.00836E-06-2.06798E-06
 -1       164-5.73141E-05 1.93447E-04-5.63227E-05 5.11218E-06-2.80744E-06-8.93232E-07
 -1       165-5.62926E-05 1.86924E-04-5.41852E-05 6.28460E-06-1.51473E-06-1.37082E-06
 -1       166-5.70313E-05 1.87176E-04-5.30203E-05 5.08432E-06-1.37285E-06-9.59625E-08
 -1       167-5.42806E-05 1.79594E-04-5.25116E-05 5.11591E-06-2.92098E-06 4.97297E-08
 -1       168-5.40991E-05 1.79246E-04-5.22345E-05 6.55664E-06-2.66066E-06-1.43165E-06
 -1       169-5.23608E-05 1.75025E-04-5.16887E-05 5.65133E-06-1.43201E-06 2.26809E-07
 -1       170-5.10839E-05 1.72641E-04-5.07174E-05 6.64035E-06-1.30018E-06-5.96561E-07
 -1       171-4.88983E-05 1.68274E-04-5.07092E-05 4.82752E-06-2.03020E-06-3.47506E-07
 -1       172-4.93617E-05 1.65448E-04-4.90583E-05 3.66551E-06-2.16997E-06-8.16086E-07
 -1       173-4.87393E-05 1.62121E-04-4.82304E-05 3.95243E-06-1.52017E-06-5.93767E-08
 -1       174-4.82619E-05 1.59660E-04-4.77515E-05 4.04312E-06-1.47937E-06-1.16705E-07
 -1       175-4.62174E-05 1.54971E-04-4.64729E-05 4.32443E-06-1.15121E-06-2.87667E-07
 -1       176-4.62377E-05 1.53081E-04-4.56760E-05 4.64208E-06-1.22303E-06 3.03221E-07
 -1       177-4.54131E-05 1.49854E-04-4.45943E-05 4.77454E-06-1.68243E-06 1.96508E-07
 -1       178-4.39809E-05 1.46058E-04-4.38760E-05 4.73137E-06-2.28073E-06 3.47560E-08
 -1       179-4.30963E-05 1.42888E-04-4.29271E-05 5.23162E-06-2.20041E-06 2.96069E-07
 -1       180-4.15396E-05 1.40258E-04-4.27491E-05 5.10238E-06-1.91751E-06-1.68514E-07
 -1       181-4.05059E-05 1.36209E-04-4.15329E-05 5.01754E-06-1.70586E-06-1.07988E-07
 -1       182-4.06860E-05 1.33482E-04-4.03197E-05 5.74277E-06-1.44143E-06 8.90202E-07
 -1       183-3.97536E-05 1.31538E-04-3.98622E-05 4.56291E-06-1.30182E-06 2.07217E-07
 -1       184-3.69725E-05 1.25436E-04-3.88654E-05 4.84230E-06-1.96117E-06 4.45402E-07
 -1       185-3.57702E-05 1.23102E-04-3.81218E-05 4.42195E-06-1.86285E-06-2.13182E-07
 -1       186-3.38060E-05 1.18257E-04-3.67677E-05 3.37506E-06-1.01373E-07-2.05542E-07
 -1       187-3.50049E-05 1.15873E-04-3.58873E-05 3.92610E-06 6.40721E-07 1.06478E-06
 -1       188-3.37441E-05 1.10187E-04-3.39771E-05 3.68601E-06-5.01232E-07 2.36282E-06
 -1       189-3.35388E-05 1.06007E-04-3.22143E-05 5.00532E-06-1.18696E-06 1.40973E-06
 -1       190-3.00222E-05 1.02395E-04-3.16118E-05 4.54977E-06-3.70685E-06 5.89517E-07
 -1       191-2.24804E-05 9.10724E-05-2.87178E-05-5.54114E-08-6.27751E-06-6.63993E-07
 -1       192-3.10246E-05 1.02004E-04-1.76145E-05-1.36984E-05-1.34791E-05 1.12511E-07
 -1       193-1.56252E-05 2.10053E-04-1.49613E-05 3.76457E-05-5.64835E-05 3.59882E-06
 -1       194-1.35048E-05 1.66780E-04-1.04729E-05 8.26290E-06-4.93665E-05 3.97920E-06
 -1       195-5.08730E-06 1.43143E-04 0.00000E+00-6.81440E-06-5.05317E-05 2.24141E-06
 -1       196-8.93177E-06 1.21498E-04-2.91956E-06-1.68125E-05-4.11083E-05 3.84639E-07
 -1       197 0.00000E+00 1.13951E-04 0.00000E+00-2.10945E-05-4.09039E-05 0.00000E+00
 -1       198-6.77043E-05 2.95473E-04-1.10995E-04-4.56907E-05 6.30160E-05 2.78785E-05
 -1       199-1.66114E-05 1.42857E-04-6.28741E-05 6.96796E-07 8.47656E-05-4.47385E-06
 -1       200-2.79697E-05 1.00435E-04-2.68966E-05 1.21846E-05 5.31806E-05-6.32987E-06
 -1       201-1.50766E-05 4.71324E-05-8.55030E-06 1.22486E-05 3.33393E-05 2.48183E-06
 -1       202-7.00174E-06 2.36956E-05-6.10678E-06 7.05031E-06 2.04946E-05-5.47456E-07
 -1       203-9.81632E-06 2.32371E-05-3.78747E-06 9.86197E-06 1.04908E-05-3.96471E-06
 -1       204-1.24642E-05 2.66321E-05-5.86244E-06 5.33913E-06 1.77011E-06-1.10824E-06
 -1       205-1.15549E-05 3.37448E-05-1.05484E-05 4.47385E-06-1.39741E-06 2.89826E-07
 -1       206-9.64513E-06 3.22026E-05-1.15216E-05 3.82470E-06-3.28013E-06 1.51887E-07
 -1       207-8.55776E-06 3.79041E-05-1.49639E-05 3.03834E-06 1.08184E-06 6.48147E-07
 -1       208-1.25244E-05 4.26566E-05-1.45719E-05 5.99686E-06 2.01425E-07-2.06023E-06
 -1       209-1.50053E-05 4.84466E-05-1.61301E-05 2.99993E-06 1.13101E-06 3.03195E-07
 -1       210-1.84876E-05 6.11869E-05-1.97782E-05 3.47083E-06 8.06246E-07 6.44210E-07
 -1       211-2.11522E-05 6.39267E-05-1.89875E-05 3.52869E-06-1.93991E-06-2.13051E-06
 -1       212-2.44112E-05 7.29974E-05-2.09705E-05 4.11436E-06-3.26221E-06-1.51663E-07
 -1       213-2.47491E-05 7.81288E-05-2.52653E-05 3.91825E-06-1.56677E-06 6.45366E-07
 -1       214-2.29215E-05 7.78501E-05-2.45885E-05 2.80350E-06-2.87883E-06-8.10259E-07
 -1       215-2.65513E-05 8.93228E-05-2.76047E-05 4.64431E-06-2.45889E-06-3.36418E-07
 -1       216-2.77919E-05 9.16093E-05-2.85536E-05 4.37089E-06-1.89538E-06 4.02299E-07
 -1       217-2.94914E-05 9.78208E-05-3.02557E-05 3.34036E-06-8.19615E-07-8.88268E-07
 -1       218-3.22968E-05 1.05201E-04-3.25625E-05 3.70024E-06-1.67292E-06-1.51248E-07
 -1       219-3.32109E-05 1.09034E-04-3.33954E-05 2.68342E-06 4.14006E-07-3.96086E-07
 -1       220-3.54541E-05 1.16970E-04-3.55718E-05 3.15817E-06 4.37064E-07-9.30757E-07
 -1       221-3.68480E-05 1.21605E-04-3.65998E-05 3.77988E-06-5.40086E-07-3.17224E-07
 -1       222-3.77479E-05 1.26413E-04-3.80026E-05 3.70409E-06-4.46424E-07 5.61260E-08
 -1       223-4.02480E-05 1.33476E-04-4.02363E-05 3.78708E-06-8.18480E-08-9.16309E-08
 -1       224-4.16323E-05 1.38970E-04-4.19314E-05 4.35642E-06-6.79047E-07-2.44454E-08
 -1       225-4.31278E-05 1.44917E-04-4.37485E-05 4.49270E-06-1.81584E-07 1.40235E-07
 -1       226-4.47329E-05 1.49321E-04-4.47034E-05 4.32645E-06 1.00011E-07 5.01621E-08
 -1       227-4.66499E-05 1.54977E-04-4.63406E-05 4.24769E-06 2.72417E-07 8.08477E-08
 -1       228-4.84745E-05 1.60276E-04-4.78859E-05 4.28489E-06-4.63987E-08-1.61635E-07
 -1       229-5.10012E-05 1.67668E-04-4.99540E-05 4.28137E-06-2.53081E-07-5.27877E-07
 -1       230-5.14092E-05 1.72619E-04-5.16691E-05 3.82225E-06-5.81191E-07 5.87828E-08
 -1       231-5.24174E-05 1.76170E-04-5.27494E-05 3.79554E-06 6.74042E-08 2.78813E-07
 -1       232-5.53478E-05 1.84506E-04-5.48786E-05 4.39587E-06 6.58248E-07 9.90446E-07
 -1       233-5.61072E-05 1.85042E-04-5.46989E-05 3.82858E-06-6.04929E-08 2.29879E-07
 -1       234-5.83373E-05 1.91948E-04-5.71834E-05 3.18009E-06-9.52771E-07 1.44375E-07
 -1       235-5.73840E-05 1.94228E-04-5.76805E-05 2.96990E-06 5.04400E-07 6.47060E-07
 -1       236-6.00164E-05 1.99424E-04-5.85353E-05 2.15250E-06 1.73688E-06 4.07208E-08
 -1       237-6.48051E-05 2.03793E-04-5.81706E-05 1.88045E-06-6.20947E-08-1.19181E-06
 -1       238-6.13317E-05 2.01493E-04-5.91893E-05 1.85401E-06-1.09160E-06-6.93304E-07
 -1       239-5.90538E-05 2.04888E-04-6.00769E-05 2.05372E-06-5.86090E-06 1.81198E-06
 -1       240-4.10680E-05 2.30831E-04-6.26364E-05 2.13292E-05-3.15135E-05 5.21195E-06
 -1       241-1.51120E-05 1.87180E-04-9.58948E-06 4.30106E-05 4.25920E-05-1.97196E-06
 -1       242-2.40686E-05 1.75608E-04-1.31440E-05 3.98329E-05 1.91550E-05-3.58829E-06
 -1       243-1.05056E-05 1.70024E-04-4.57187E-06 4.59146E-05 2.25191E-05 1.78217E-05
 -1       244 0.00000E+00 1.90195E-04-7.72931E-06 6.09479E-05-5.39527E-07 4.38200E-07
 -1       245 0.00000E+00 1.91440E-04-5.83383E-06 6.27179E-05-1.61242E-05 4.97880E-07
 -1       246 0.00000E+00 1.90941E-04 0.00000E+00 6.42583E-05-2.50679E-05 0.00000E+00
 -1       247-4.52781E-06 2.01195E-04-9.75409E-06 5.84682E-05-4.35182E-05-4.40401E-06
 -1       248-7.70808E-05 2.40652E-04-9.71314E-05-6.17613E-07 1.81490E-05-4.49966E-06
 -1       249-5.28953E-05 2.02899E-04-9.24919E-05-1.84375E-05 2.52634E-05 5.47612E-06
 -1       250-3.08752E-05 1.88518E-04-9.25058E-05-2.55907E-05 2.22529E-05 2.19428E-05
 -1       251 1.12468E-05 1.59457E-04-9.86858E-05-2.80875E-05 3.09742E-05 5.35180E-05
 -1       252 2.70770E-05 1.64300E-04-9.01941E-05-2.38131E-05 3.86297E-05 8.46442E-05
 -1       253-6.35358E-05 2.24219E-04-1.03464E-04 4.64237E-06 1.02178E-05-3.12919E-06
 -1       254-2.66060E-05 1.75300E-04-1.03175E-04-2.05182E-05 4.43896E-07 8.20743E-06
 -1       255 2.33763E-06 1.56722E-04-1.14765E-04-1.33091E-05 1.39568E-06 1.70501E-05
 -1       256 5.48612E-05 1.23770E-04-1.24005E-04 1.59526E-05 4.10530E-05 3.80063E-05
 -1       257 1.59238E-04 1.29057E-04-1.97069E-04 3.68547E-05 5.96955E-05 4.86181E-05
 -1       258-3.95309E-05 1.96615E-04-1.15609E-04-1.36251E-05 1.15937E-07-1.02438E-05
 -1       259-7.20075E-06 1.73509E-04-1.08839E-04-1.40058E-05 6.04076E-06-3.77572E-07
 -1       260 1.83575E-05 1.38795E-04-1.09241E-04-1.11011E-05 1.32861E-05-2.25777E-06
 -1       261 8.08797E-05 1.08687E-04-1.40876E-04 4.92851E-05 1.66870E-05-1.21496E-05
 -1       262 2.73256E-04-4.83934E-04-7.40720E-05 4.06463E-04-1.52668E-05-5.67341E-05
 -1       263-5.09034E-05 2.08495E-04-1.08078E-04 8.88082E-06 6.45022E-06-1.42640E-05
 -1       264-1.15570E-05 1.56699E-04-1.13185E-04-1.70911E-05 3.74860E-06-2.76203E-05
 -1       265-9.39332E-06 1.50861E-04-9.40852E-05-2.75979E-05-1.72870E-05-3.68071E-05
 -1       266 2.86998E-06 1.40951E-04-9.32974E-05 1.09332E-05-5.65619E-05-4.27678E-05
 -1       267 1.03921E-04 2.35700E-05-9.46903E-05 2.62820E-05-1.53009E-04-4.48660E-05
 -1       268-5.02766E-05 1.88714E-04-1.05051E-04 3.62359E-06 3.23650E-06-2.40455E-05
 -1       269-3.95791E-05 1.71621E-04-9.59435E-05-1.94853E-05 5.04775E-06-4.17803E-05
 -1       270-3.20606E-05 1.70670E-04-9.58076E-05-1.64955E-05 3.36246E-06-4.76047E-05
 -1       271-2.87960E-05 1.62762E-04-8.51536E-05-1.26862E-05-1.77441E-06-6.82265E-05
 -1       272-1.24316E-05 1.21761E-04-7.54380E-05-1.97983E-05-7.70818E-05-5.07873E-05
 -1       273-7.10615E-05 2.21465E-04-9.71703E-05 1.13016E-05 1.00336E-05-1.10442E-05
 -1       274-6.54317E-05 1.87080E-04-9.58089E-05-7.42305E-07 5.19967E-06-2.67797E-05
 -1       275-6.16632E-05 1.75602E-04-7.66724E-05-1.36221E-05-3.84071E-07-3.80213E-05
 -1       276-6.14307E-05 1.68583E-04-7.16993E-05-2.23814E-05-1.52780E-05-5.86907E-05
 -1       277-6.21136E-05 2.00164E-04-7.62425E-05-2.88189E-05-2.37988E-05-2.63936E-05
 -1       278-8.21087E-05 2.25167E-04-8.80070E-05 4.39999E-06-1.89868E-05-7.00801E-06
 -1       279-8.38893E-05 2.12807E-04-8.18932E-05-1.12865E-05-1.96361E-05-1.59963E-05
 -1       280-8.37840E-05 2.13342E-04-7.53992E-05-1.51091E-05-1.15903E-05-2.44439E-05
 -1       281-7.98933E-05 2.12769E-04-7.63993E-05-1.44060E-05-1.31218E-05-2.80091E-05
 -1       282-7.79466E-05 2.21183E-04-7.29232E-05-2.04838E-05-1.85784E-05-1.71437E-05
 -1       283-6.74414E-05 2.55356E-04-8.09169E-05-3.16866E-05-3.09913E-05-2.62486E-06
 -1       284-6.31371E-05 2.28846E-04-7.29577E-05-2.94924E-05-2.05007E-05-5.76819E-06
 -1       285-6.79354E-05 2.47567E-04-8.07427E-05-2.15253E-05-1.75050E-05-2.67060E-06
 -1       286-6.66101E-05 2.56807E-04-8.43726E-05-8.35547E-06-1.79018E-05-2.35389E-06
 -1       287-7.30750E-05 3.09642E-04-1.02631E-04 2.30282E-05-3.97011E-05 1.90050E-06
 -1       288-5.68200E-05 2.42987E-04-8.29783E-05-1.78081E-05-2.77092E-05 7.36432E-07
 -1       289-5.73338E-05 2.30971E-04-7.46999E-05-2.87693E-05-2.32953E-05 2.65924E-06
 -1       290-5.90636E-05 2.32135E-04-7.58869E-05-2.17366E-05-1.07029E-05 1.63469E-06
 -1       291-5.81263E-05 2.39041E-04-7.70044E-05-9.36129E-06-1.81650E-05 4.25832E-06
 -1       292-8.33024E-05 2.88118E-04-8.01517E-05 9.89804E-06-2.05006E-05 1.47310E-06
 -1       293-5.25757E-05 1.98488E-04-6.17957E-05-1.47562E-05-2.25190E-05 4.14099E-06
 -1       294-5.37869E-05 2.03761E-04-6.30617E-05-1.89826E-05-1.89174E-05 9.95716E-06
 -1       295-5.47807E-05 2.12639E-04-6.79435E-05-1.50694E-05-1.88911E-05 9.16587E-06
 -1       296-6.19426E-05 2.34659E-04-7.06443E-05-8.83880E-06-1.37625E-05 8.85559E-06
 -1       297-7.24597E-05 2.59276E-04-7.79151E-05-8.40385E-07-1.09041E-05 4.83562E-06
 -1       298-4.85661E-05 1.65729E-04-4.74156E-05-6.81161E-06-1.38461E-05 4.74665E-06
 -1       299-5.08666E-05 1.89584E-04-5.77548E-05-7.45269E-06-1.30348E-05 1.07685E-05
 -1       300-5.68878E-05 2.17475E-04-6.85005E-05-9.81690E-06-9.65941E-06 1.03627E-05
 -1       301-6.62927E-05 2.31776E-04-6.98388E-05-4.71001E-06-1.06446E-05 9.14170E-06
 -1       302-7.45978E-05 2.61198E-04-8.07495E-05 3.32433E-06-8.91298E-06 6.91582E-06
 -1       303-4.02187E-05 1.35965E-04-4.05906E-05-1.40795E-06-1.34257E-05 1.94121E-06
 -1       304-4.70827E-05 1.66098E-04-5.02690E-05-2.88689E-06-1.20930E-05 6.84894E-06
 -1       305-5.69570E-05 1.96732E-04-6.02534E-05-3.24478E-06-9.80994E-06 7.40833E-06
 -1       306-6.43370E-05 2.19535E-04-6.48327E-05-2.57105E-06-7.65981E-06 7.21671E-06
 -1       307-7.77215E-05 2.58723E-04-7.57638E-05 3.56565E-07-5.55301E-06 3.03541E-06
 -1       308-3.41534E-05 1.17362E-04-3.42524E-05 2.61345E-06-1.03285E-05 1.82353E-06
 -1       309-4.33558E-05 1.52542E-04-4.56585E-05 1.93830E-06-7.97815E-06 4.42092E-06
 -1       310-5.40056E-05 1.86099E-04-5.57228E-05 5.44525E-06-5.32133E-06 6.40797E-06
 -1       311-6.36224E-05 2.13045E-04-6.25365E-05 2.56717E-06-4.34041E-06 5.07833E-06
 -1       312-7.45226E-05 2.50342E-04-7.39691E-05 2.24560E-06-7.65588E-07 4.21741E-06
 -1       313-3.58642E-05 1.18784E-04-3.35930E-05 2.53913E-06-5.34501E-06 2.41033E-06
 -1       314-4.21315E-05 1.49640E-04-4.58969E-05 3.46433E-06-6.42119E-06 5.35211E-06
 -1       315-5.19728E-05 1.76054E-04-5.38929E-05 9.52196E-06-3.91218E-06 5.78755E-06
 -1       316-6.29523E-05 2.10929E-04-6.26812E-05 3.45070E-06-3.83579E-06 7.06054E-06
 -1       317-7.05454E-05 2.37625E-04-7.11936E-05 5.58589E-06-1.06698E-06 6.60889E-06
 -1       318-3.53578E-05 1.14209E-04-3.29910E-05 4.52497E-06-3.48831E-06 3.90188E-06
 -1       319-4.29072E-05 1.44254E-04-4.36970E-05 8.14834E-06-4.49110E-06 6.56953E-06
 -1       320-5.25046E-05 1.73468E-04-5.22717E-05 7.83430E-06-5.87002E-06 7.49592E-06
 -1       321-6.06426E-05 2.04595E-04-6.03634E-05 5.83166E-06-2.87645E-06 7.16517E-06
 -1       322-6.91413E-05 2.35053E-04-7.13209E-05 5.47115E-06-1.79903E-06 4.21794E-06
 -1       323-3.47182E-05 1.12041E-04-3.39326E-05 6.68371E-06-2.24726E-06 7.28933E-06
 -1       324-4.14622E-05 1.41943E-04-4.31387E-05 8.47422E-06-1.96938E-06 6.64313E-06
 -1       325-5.33013E-05 1.79579E-04-5.30515E-05 8.32297E-06-2.86990E-06 8.12025E-06
 -1       326-6.06508E-05 2.02863E-04-6.01672E-05 7.81942E-06-1.91894E-06 5.25041E-06
 -1       327-7.05151E-05 2.37570E-04-7.24050E-05 9.12055E-06-1.73977E-06 3.91029E-06
 -1       328-3.05210E-05 1.04660E-04-3.18932E-05 7.12138E-06-3.09261E-06 2.82226E-06
 -1       329-4.10541E-05 1.40085E-04-4.29794E-05 8.22337E-06-1.43448E-06 3.16082E-06
 -1       330-5.32709E-05 1.73720E-04-5.16260E-05 8.47001E-06-4.18538E-07 3.94904E-06
 -1       331-6.04359E-05 1.98877E-04-5.84389E-05 7.34646E-06-4.95491E-07 2.26064E-06
 -1       332-7.10875E-05 2.35068E-04-7.00518E-05 4.78891E-06-4.55954E-08 9.58372E-07
 -1       333-3.46235E-05 1.13783E-04-3.36692E-05 7.69553E-06-1.28138E-06 3.13998E-06
 -1       334-4.08526E-05 1.37951E-04-4.24782E-05 9.82187E-06-7.90927E-07 3.78167E-06
 -1       335-4.83731E-05 1.64833E-04-5.09376E-05 9.55466E-06-1.06075E-07 3.93999E-06
 -1       336-5.91491E-05 1.96613E-04-5.79638E-05 1.02370E-05-4.10905E-07 3.70646E-06
 -1       337-6.82862E-05 2.27507E-04-6.82258E-05 4.38406E-06-7.31835E-07 2.12099E-06
 -1       338-3.31647E-05 1.09644E-04-3.40630E-05 4.92830E-06-2.14118E-06 4.42840E-06
 -1       339-4.12159E-05 1.40599E-04-4.37828E-05 9.01248E-06-1.94404E-06 3.71783E-06
 -1       340-5.01573E-05 1.70215E-04-5.22048E-05 7.64363E-06-1.12201E-06 3.97829E-06
 -1       341-5.89489E-05 1.96198E-04-5.81795E-05 8.88032E-06-2.16570E-07 4.28926E-06
 -1       342-6.58190E-05 2.22756E-04-6.68784E-05 2.32747E-06-8.76448E-08 2.79636E-06
 -1       343-3.71521E-05 1.19888E-04-3.43320E-05 6.04093E-06-1.67020E-06 2.79910E-06
 -1       344-4.28401E-05 1.43811E-04-4.46787E-05 1.07494E-05-2.55065E-06 3.87877E-06
 -1       345-4.64937E-05 1.66375E-04-5.26291E-05 8.84792E-06-1.07321E-06 4.71599E-06
 -1       346-5.77859E-05 1.91675E-04-5.72464E-05 1.03027E-05-5.92568E-07 3.65945E-06
 -1       347-6.40997E-05 2.15197E-04-6.53364E-05 3.97967E-06 1.00241E-07 2.77557E-06
 -1       348-3.55644E-05 1.15085E-04-3.37932E-05 4.01100E-06-3.95296E-07 2.36949E-06
 -1       349-4.29235E-05 1.42740E-04-4.35750E-05 1.23559E-05-1.04186E-06 5.10534E-06
 -1       350-4.65555E-05 1.61449E-04-4.97890E-05 7.99111E-06-1.06199E-06 4.34730E-06
 -1       351-5.71297E-05 1.89130E-04-5.62188E-05 9.91222E-06 1.11576E-07 4.08602E-06
 -1       352-6.49702E-05 2.15799E-04-6.41004E-05 6.70557E-06-5.86859E-07 6.02238E-06
 -1       353-3.60626E-05 1.18416E-04-3.47702E-05 4.06707E-06-7.27441E-08 1.04149E-06
 -1       354-4.19419E-05 1.41228E-04-4.29915E-05 1.01552E-05-1.44153E-06 1.94166E-06
 -1       355-4.79069E-05 1.66211E-04-5.11683E-05 9.73148E-06-2.24529E-06 2.88674E-06
 -1       356-5.82859E-05 1.90057E-04-5.62073E-05 8.16976E-06 7.25817E-07 3.11223E-06
 -1       357-6.24686E-05 2.09864E-04-6.41234E-05 6.82376E-06-1.86789E-07 1.67525E-06
 -1       358-3.55353E-05 1.18906E-04-3.59106E-05 4.63414E-06-6.45321E-07 1.11234E-06
 -1       359-4.25279E-05 1.43168E-04-4.37696E-05 1.09307E-05-1.22955E-06 3.30065E-06
 -1       360-4.82176E-05 1.62876E-04-4.93524E-05 1.01367E-05-2.15609E-06 3.48011E-06
 -1       361-5.44000E-05 1.82419E-04-5.44566E-05 8.34647E-06-2.40127E-07 2.79857E-06
 -1       362-5.98912E-05 2.03438E-04-6.20563E-05 9.14288E-06-2.72615E-07 1.42850E-06
 -1       363-3.61793E-05 1.22701E-04-3.66168E-05 3.26724E-06-7.64836E-07 1.36503E-06
 -1       364-4.20729E-05 1.42567E-04-4.36081E-05 9.98057E-06-1.46628E-06 3.29499E-06
 -1       365-4.83281E-05 1.62706E-04-4.90451E-05 9.92082E-06-1.24537E-06 3.19085E-06
 -1       366-5.37982E-05 1.79725E-04-5.31336E-05 8.38080E-06-7.35962E-07 2.92485E-06
 -1       367-6.03966E-05 2.01573E-04-6.01831E-05 1.01556E-05-1.45174E-07 2.74731E-06
 -1       368-3.84821E-05 1.27494E-04-3.77761E-05 5.53691E-06-1.66848E-06 2.02409E-06
 -1       369-4.29004E-05 1.44016E-04-4.36082E-05 1.05131E-05-1.78804E-06 3.27580E-06
 -1       370-4.79544E-05 1.60777E-04-4.86130E-05 9.99181E-06-2.41890E-06 3.09594E-06
 -1       371-5.28183E-05 1.77100E-04-5.27464E-05 8.74493E-06-5.05503E-07 2.81400E-06
 -1       372-5.79719E-05 1.94543E-04-5.91098E-05 7.33651E-06-4.36932E-08 1.76504E-06
 -1       373-3.87409E-05 1.28974E-04-3.88922E-05 4.91200E-06-1.40061E-06 2.04923E-06
 -1       374-4.28962E-05 1.44451E-04-4.40069E-05 1.15801E-05-1.45566E-06 3.91199E-06
 -1       375-4.69997E-05 1.60560E-04-4.83733E-05 9.98549E-06-1.56363E-06 2.37906E-06
 -1       376-5.26744E-05 1.75130E-04-5.20356E-05 9.44767E-06-4.73903E-07 1.74346E-06
 -1       377-5.75894E-05 1.93871E-04-5.82525E-05 9.33597E-06-1.75557E-07 2.04405E-06
 -1       378-3.95345E-05 1.30128E-04-3.81754E-05 4.99194E-06-6.51439E-07 5.25881E-07
 -1       379-4.26443E-05 1.43659E-04-4.35293E-05 1.00441E-05-1.65306E-06 1.30857E-06
 -1       380-4.75381E-05 1.59956E-04-4.88037E-05 1.00219E-05-1.80152E-06 1.48894E-06
 -1       381-5.31252E-05 1.75048E-04-5.18850E-05 8.62150E-06 1.21482E-07 1.76075E-06
 -1       382-5.79171E-05 1.91937E-04-5.75058E-05 6.82699E-06-3.67396E-07 2.70696E-07
 -1       383-4.06661E-05 1.32120E-04-3.94171E-05 6.25533E-06-1.09422E-06 1.07662E-06
 -1       384-4.34902E-05 1.45376E-04-4.40763E-05 1.05325E-05-1.46293E-06 2.01662E-06
 -1       385-4.69813E-05 1.57206E-04-4.74989E-05 1.01599E-05-1.79174E-06 2.09214E-06
 -1       386-5.06503E-05 1.68820E-04-5.04352E-05 8.88853E-06-4.88835E-07 1.62747E-06
 -1       387-5.49649E-05 1.82093E-04-5.48830E-05 7.30655E-06-6.03728E-07 9.49136E-07
 -1       388-4.01913E-05 1.34643E-04-4.02495E-05 6.14157E-06-1.43340E-06 1.00565E-06
 -1       389-4.31259E-05 1.45212E-04-4.41418E-05 9.95412E-06-1.49381E-06 1.93042E-06
 -1       390-4.69875E-05 1.56642E-04-4.69568E-05 9.97220E-06-1.21865E-06 1.78301E-06
 -1       391-4.98699E-05 1.66195E-04-4.94255E-05 8.74994E-06-7.83033E-07 1.45552E-06
 -1       392-5.41371E-05 1.81742E-04-5.47450E-05 6.11554E-06-7.25907E-07 2.98358E-07
 -1       393-4.01556E-05 1.33595E-04-4.00301E-05 6.26411E-06-1.19972E-06 1.01286E-06
 -1       394-4.31791E-05 1.45072E-04-4.42812E-05 9.92836E-06-1.97266E-06 1.25138E-06
 -1       395-4.66760E-05 1.55083E-04-4.67512E-05 9.82707E-06-1.74999E-06 1.16914E-06
 -1       396-4.89589E-05 1.63834E-04-4.86771E-05 9.04828E-06-5.58479E-07 1.16608E-06
 -1       397-5.19673E-05 1.74409E-04-5.23790E-05 6.20252E-06 3.78273E-07 1.04332E-06
 -1       398-4.08722E-05 1.38334E-04-4.17684E-05 7.04464E-06-1.62466E-06 6.69442E-07
 -1       399-4.37333E-05 1.46434E-04-4.42841E-05 9.50242E-06-1.88225E-06 7.76517E-07
 -1       400-4.56591E-05 1.53874E-04-4.61295E-05 1.07036E-05-1.44311E-06 1.15448E-06
 -1       401-4.81497E-05 1.60315E-04-4.77932E-05 9.35051E-06-6.76621E-07 5.20544E-07
 -1       402-5.09243E-05 1.69088E-04-5.06732E-05 6.57690E-06 2.31466E-08 6.21774E-07
 -1       403-4.11212E-05 1.37903E-04-4.13438E-05 6.13440E-06-1.29795E-06 8.66807E-08
 -1       404-4.38237E-05 1.46112E-04-4.41094E-05 9.23135E-06-2.07723E-06 7.82409E-07
 -1       405-4.58706E-05 1.52548E-04-4.58706E-05 1.10402E-05-9.88584E-07 1.11272E-06
 -1       406-4.71354E-05 1.58662E-04-4.77083E-05 8.86273E-06-7.34736E-07 8.91294E-07
 -1       407-5.03986E-05 1.67467E-04-5.02173E-05 5.52651E-06-3.13347E-07 1.19540E-07
 -1       408-4.29241E-05 1.42900E-04-4.25819E-05 6.77101E-06-1.36832E-06 7.59166E-07
 -1       409-4.40021E-05 1.47074E-04-4.44911E-05 9.60493E-06-1.79914E-06 8.00456E-07
 -1       410-4.53564E-05 1.51200E-04-4.55543E-05 1.00807E-05-1.45304E-06 9.21467E-07
 -1       411-4.63366E-05 1.55113E-04-4.64358E-05 9.22237E-06-6.61953E-07 7.93670E-07
 -1       412-4.78296E-05 1.59887E-04-4.82073E-05 6.07901E-06-4.23928E-08 6.58485E-07
 -1       413-4.31495E-05 1.44334E-04-4.32757E-05 6.87955E-06-1.08196E-06 4.63410E-07
 -1       414-4.41027E-05 1.47216E-04-4.43921E-05 9.32865E-06-1.66709E-06 4.91393E-07
 -1       415-4.50937E-05 1.50316E-04-4.49999E-05 1.00944E-05-1.06801E-06 5.79581E-07
 -1       416-4.57243E-05 1.52432E-04-4.56732E-05 9.18243E-06-8.25701E-07 2.96292E-07
 -1       417-4.66914E-05 1.55387E-04-4.69304E-05 5.85920E-06-6.11526E-07 4.47718E-07
 -1       418-4.32190E-05 1.45350E-04-4.38783E-05 6.43757E-06-1.47503E-06 3.12817E-08
 -1       419-4.43211E-05 1.47670E-04-4.46411E-05 9.53203E-06-1.73720E-06 1.10880E-07
 -1       420-4.48190E-05 1.49079E-04-4.48339E-05 9.97934E-06-1.36530E-06 9.70799E-08
 -1       421-4.49649E-05 1.49939E-04-4.48692E-05 9.55984E-06-6.89657E-07 2.65597E-08
 -1       422-4.56844E-05 1.51884E-04-4.54958E-05 6.02499E-06-2.10032E-07 1.61157E-07
 -1       423-4.44895E-05 1.49260E-04-4.48972E-05 6.69524E-06-1.58741E-06 2.70415E-07
 -1       424-4.46437E-05 1.48680E-04-4.47111E-05 9.40219E-06-1.50976E-06-4.44673E-08
 -1       425-4.44286E-05 1.47881E-04-4.43118E-05 1.01936E-05-8.39631E-07 1.07497E-07
 -1       426-4.38786E-05 1.46528E-04-4.37971E-05 9.38729E-06-7.05797E-07-7.82780E-08
 -1       427-4.43953E-05 1.46822E-04-4.36911E-05 5.75350E-06-1.89261E-07 1.54644E-07
 -1       428-4.48938E-05 1.50325E-04-4.53999E-05 6.27357E-06-1.79855E-06-3.53770E-07
 -1       429-4.48064E-05 1.48372E-04-4.45298E-05 9.67287E-06-1.28874E-06-6.64350E-07
 -1       430-4.39494E-05 1.46530E-04-4.39367E-05 1.03363E-05-9.52550E-07-3.15690E-07
 -1       431-4.30251E-05 1.44114E-04-4.34623E-05 9.49945E-06-7.66430E-07-7.37067E-07
 -1       432-4.29231E-05 1.42465E-04-4.26127E-05 5.24098E-06-2.35271E-07-2.83951E-07
 -1       433-4.55795E-05 1.52543E-04-4.57327E-05 6.46769E-06-1.39383E-06-3.01808E-07
 -1       434-4.47136E-05 1.49036E-04-4.49357E-05 9.64011E-06-1.33933E-06-5.85690E-07
 -1       435-4.32081E-05 1.45241E-04-4.41367E-05 1.02558E-05-7.34102E-07-6.41070E-07
 -1       436-4.23452E-05 1.41518E-04-4.26839E-05 9.53270E-06-6.35601E-07-5.00750E-07
 -1       437-4.18256E-05 1.38351E-04-4.12666E-05 6.25244E-06-1.38345E-07-2.97887E-07
 -1       438-4.61302E-05 1.54206E-04-4.62604E-05 6.96311E-06-1.29546E-06-3.43053E-07
 -1       439-4.48300E-05 1.49580E-04-4.49591E-05 9.60031E-06-1.02406E-06-5.56120E-07
 -1       440-4.28914E-05 1.43777E-04-4.31404E-05 1.07216E-05-8.21913E-07-7.06940E-07
 -1       441-4.16330E-05 1.38131E-04-4.14740E-05 9.17995E-06-3.41449E-07-4.66932E-07
 -1       442-3.90824E-05 1.30452E-04-3.90991E-05 5.44589E-06-3.74271E-07-6.70265E-09
 -1       443-4.66856E-05 1.56365E-04-4.71110E-05 6.82832E-06-1.09390E-06-5.38783E-07
 -1       444-4.47098E-05 1.48601E-04-4.46067E-05 9.82712E-06-1.36044E-06-8.05110E-07
 -1       445-4.21643E-05 1.41774E-04-4.29676E-05 1.04556E-05-5.09341E-07-8.71771E-07
 -1       446-4.09829E-05 1.36348E-04-4.11642E-05 9.48662E-06-4.35227E-07-5.84146E-07
 -1       447-3.83507E-05 1.28286E-04-3.84165E-05 6.36135E-06-4.30016E-07-6.70822E-07
 -1       448-4.74822E-05 1.58336E-04-4.79395E-05 6.18447E-06-1.27837E-06-3.20710E-07
 -1       449-4.51784E-05 1.50056E-04-4.49557E-05 9.39485E-06-1.70700E-06-9.04156E-07
 -1       450-4.23445E-05 1.41112E-04-4.23296E-05 9.34659E-06-1.16698E-06-7.73401E-07
 -1       451-3.91868E-05 1.31479E-04-3.98241E-05 9.24432E-06-7.03618E-07-6.61165E-07
 -1       452-3.61196E-05 1.21071E-04-3.63899E-05 5.00148E-06-9.47362E-07-2.85458E-07
 -1       453-4.77292E-05 1.58917E-04-4.75020E-05 5.80211E-06-1.43320E-06-1.42697E-06
 -1       454-4.50705E-05 1.48971E-04-4.45080E-05 1.01684E-05-1.79174E-06-2.58429E-06
 -1       455-4.18988E-05 1.39291E-04-4.18562E-05 8.34567E-06-1.34689E-06-1.59032E-06
 -1       456-3.87081E-05 1.28883E-04-3.91720E-05 1.01549E-05-1.01998E-06-2.20595E-06
 -1       457-3.56264E-05 1.17716E-04-3.49238E-05 5.60890E-06-6.26714E-07-9.83116E-07
 -1       458-4.95134E-05 1.62178E-04-4.85252E-05 5.77066E-06-2.06276E-06-9.38970E-07
 -1       459-4.54236E-05 1.49898E-04-4.47385E-05 9.40448E-06-2.51420E-06-2.12007E-06
 -1       460-4.04659E-05 1.38331E-04-4.28031E-05 9.27111E-06-1.42311E-06-2.31083E-06
 -1       461-3.83670E-05 1.26934E-04-3.87086E-05 9.67544E-06-8.67211E-07-1.98579E-06
 -1       462-3.48098E-05 1.14495E-04-3.37406E-05 5.77226E-06-1.37553E-06-1.17532E-06
 -1       463-5.10802E-05 1.67204E-04-4.94881E-05 4.86285E-06-1.82324E-06-3.86355E-07
 -1       464-4.59015E-05 1.49982E-04-4.44849E-05 8.45964E-06-2.44854E-06-2.27205E-06
 -1       465-4.08717E-05 1.35613E-04-4.05813E-05 9.12363E-06-1.52597E-06-2.35071E-06
 -1       466-3.74581E-05 1.22284E-04-3.64383E-05 8.93746E-06-4.89540E-07-2.23011E-06
 -1       467-3.20411E-05 1.03510E-04-3.07246E-05 5.70980E-06-1.16601E-06-1.12839E-06
 -1       468-4.96128E-05 1.63750E-04-4.90518E-05 6.03003E-06-1.14453E-06-1.25524E-06
 -1       469-4.64009E-05 1.49209E-04-4.40948E-05 9.01197E-06-2.73122E-06-1.77408E-06
 -1       470-4.12991E-05 1.35282E-04-4.04704E-05 9.47016E-06-1.79405E-06-2.05089E-06
 -1       471-3.70893E-05 1.20883E-04-3.60710E-05 9.68118E-06-8.21776E-07-1.87315E-06
 -1       472-3.35708E-05 1.07317E-04-3.09904E-05 6.99586E-06-7.46185E-07-1.39281E-06
 -1       473-5.01012E-05 1.65276E-04-4.97307E-05 3.85327E-06-2.15799E-06-1.46720E-06
 -1       474-4.68430E-05 1.49077E-04-4.34423E-05 8.17738E-06-3.39770E-06-1.55706E-06
 -1       475-4.14489E-05 1.32364E-04-3.89160E-05 7.63607E-06-2.28009E-06-2.26498E-06
 -1       476-3.59515E-05 1.16302E-04-3.48108E-05 9.35276E-06-1.09540E-06-2.21251E-06
 -1       477-3.16138E-05 9.77631E-05-2.85541E-05 4.79598E-06-9.34086E-07-1.21952E-06
 -1       478-4.87355E-05 1.58498E-04-4.59861E-05 2.36828E-06-2.47435E-06-3.09807E-06
 -1       479-4.66605E-05 1.46219E-04-4.15496E-05 7.80492E-06-1.86838E-06-3.78441E-06
 -1       480-4.12556E-05 1.29243E-04-3.72023E-05 5.60368E-06-2.29561E-06-3.60318E-06
 -1       481-3.59877E-05 1.11801E-04-3.25451E-05 9.32800E-06-4.94032E-07-3.80385E-06
 -1       482-2.53598E-05 8.45185E-05-2.55517E-05 6.65197E-06-2.15425E-06-1.72486E-06
 -1       483-5.02016E-05 1.63630E-04-4.77753E-05 6.18908E-07-8.97557E-07-2.35123E-06
 -1       484-4.50414E-05 1.47536E-04-4.10898E-05 6.98470E-06-1.40656E-06-3.82933E-06
 -1       485-4.06836E-05 1.30099E-04-3.69294E-05 6.92902E-06-1.32293E-06-4.82300E-06
 -1       486-3.25005E-05 1.08109E-04-3.14743E-05 7.62666E-06 2.68126E-07-5.14823E-06
 -1       487-2.73725E-05 8.59630E-05-2.44423E-05 6.03214E-06-1.08877E-06-3.38218E-06
 -1       488-5.55196E-05 1.73531E-04-4.63919E-05 8.80297E-07 3.79225E-06-3.10881E-06
 -1       489-3.86608E-05 1.46410E-04-3.93846E-05 8.01918E-06 7.66705E-06-3.52119E-06
 -1       490-3.48477E-05 1.22951E-04-3.52543E-05 4.85100E-06 1.24160E-06-5.15573E-06
 -1       491-2.68366E-05 1.03928E-04-2.88936E-05 3.11148E-06 5.89459E-06-5.67485E-06
 -1       492-2.66303E-05 8.11859E-05-2.07143E-05 2.15119E-06 1.69497E-06-3.07037E-06
 -1       493-3.86655E-05 1.68375E-04-3.26994E-05 1.62842E-05 2.76925E-05-1.65995E-06
 -1       494-2.36227E-05 1.40820E-04-2.67902E-05 1.05330E-05 2.71512E-05-2.13584E-06
 -1       495-2.04892E-05 1.21655E-04-3.07921E-05 8.07277E-07 2.03176E-05-2.53567E-06
 -1       496-2.29436E-05 1.05442E-04-2.66743E-05-8.74024E-07 1.49610E-05-1.27805E-06
 -1       497-1.70170E-05 7.71330E-05-2.20992E-05 1.88173E-06 7.87175E-06 2.23438E-06
 -1       498-8.66298E-05 2.64167E-04-7.50794E-05 1.59337E-05-1.64985E-05-1.24723E-07
 -1       499-7.82843E-05 2.53387E-04-7.85871E-05 1.89326E-05 6.97029E-06-5.60933E-06
 -1       500-7.16002E-05 2.51031E-04-8.56226E-05 1.82839E-05 1.58221E-05-5.79742E-06
 -1       501-6.34740E-05 2.45495E-04-9.59067E-05 2.13342E-05 8.84058E-06-7.40424E-06
 -1       502-5.92775E-05 2.21204E-04-8.63203E-05 6.67392E-06 7.75760E-06-5.75264E-06
 -1       503-6.73565E-05 2.47101E-04-8.40986E-05 1.06809E-05 1.36485E-05-5.15583E-06
 -1       504-9.85740E-05 3.11752E-04-8.42542E-05 2.32074E-05 3.58227E-05-1.05087E-05
 -1       505-9.20354E-05 2.80099E-04-7.38402E-05 7.79197E-06-7.28696E-06 3.25749E-06
 -1       506-7.71888E-05 2.48052E-04-6.55130E-05 8.03588E-06-2.87588E-06 2.66881E-06
 -1       507-6.62331E-05 2.34373E-04-6.67298E-05 8.62611E-06 1.27292E-05 1.52386E-06
 -1       508-7.62789E-05 2.48920E-04-6.96281E-05 5.02313E-06 1.17962E-05-2.74668E-06
 -1       509-7.73612E-05 2.43626E-04-6.48991E-05 1.77487E-06 2.16351E-05-2.05730E-06
 -1       510-7.25352E-05 2.38274E-04-6.06006E-05 9.97998E-07 2.70097E-05-1.87863E-06
 -1       511-7.51788E-05 2.75094E-04-8.18261E-05 4.78243E-06 3.17756E-05-4.42469E-06
 -1       512-7.96046E-05 2.60822E-04-7.37809E-05 6.90728E-07-1.08271E-05 3.53336E-06
 -1       513-7.78844E-05 2.46880E-04-6.29247E-05 4.20477E-06-4.30107E-06 4.91160E-06
 -1       514-7.42382E-05 2.27862E-04-5.52238E-05 4.20206E-06 4.53242E-06 4.49268E-06
 -1       515-7.37260E-05 2.33110E-04-5.99638E-05 4.99716E-06 1.43976E-05 2.03189E-08
 -1       516-7.58348E-05 2.24120E-04-5.26504E-05 1.89169E-06 2.03682E-05-7.66405E-07
 -1       517-8.01416E-05 2.44291E-04-5.97336E-05 4.14477E-06 3.01463E-05-1.08849E-06
 -1       518-8.16504E-05 2.67646E-04-7.67100E-05-3.39051E-06 2.53015E-05-3.25495E-06
 -1       519-8.02489E-05 2.66919E-04-7.52311E-05 2.55917E-06-9.07591E-06 2.90439E-06
 -1       520-8.22889E-05 2.51443E-04-6.18600E-05 1.82495E-06-2.62436E-06 4.71444E-06
 -1       521-8.41331E-05 2.47793E-04-5.63930E-05 6.82753E-06 3.80801E-06 4.80350E-06
 -1       522-8.34423E-05 2.47112E-04-5.69886E-05 4.59288E-06 1.34203E-05 2.66377E-06
 -1       523-8.74934E-05 2.48674E-04-5.40731E-05 3.89787E-06 2.19325E-05 1.65569E-07
 -1       524-8.55058E-05 2.51064E-04-5.95589E-05 3.92759E-06 2.31130E-05 7.82104E-07
 -1       525-8.51091E-05 2.64745E-04-6.86849E-05 4.92503E-06 2.78492E-05-3.55324E-07
 -1       526-8.08958E-05 2.65220E-04-7.39326E-05 1.23403E-06-5.55131E-06 2.69805E-06
 -1       527-7.67997E-05 2.50011E-04-6.50149E-05 2.08301E-06-5.12114E-06 3.69853E-06
 -1       528-7.55251E-05 2.35528E-04-5.72885E-05 3.93788E-06 1.03782E-06 4.83687E-06
 -1       529-7.38516E-05 2.34709E-04-5.78220E-05 5.44267E-06 8.00051E-06 4.13648E-06
 -1       530-7.61697E-05 2.30912E-04-5.33506E-05 5.09607E-06 1.45416E-05 2.77971E-06
 -1       531-7.70170E-05 2.44269E-04-6.12488E-05 4.38904E-06 1.66092E-05 8.52148E-07
 -1       532-7.50109E-05 2.47812E-04-7.10458E-05 3.16503E-06 1.38769E-05 1.07642E-06
 -1       533-7.82675E-05 2.65783E-04-7.80423E-05 9.26831E-07-2.06044E-06 1.86689E-06
 -1       534-7.64611E-05 2.49665E-04-6.71522E-05 2.02094E-06-3.12143E-06 2.78256E-06
 -1       535-7.58944E-05 2.42879E-04-6.25369E-05 4.86099E-06-7.94386E-07 3.15293E-06
 -1       536-7.30050E-05 2.37671E-04-6.07650E-05 4.27677E-06 5.12808E-06 2.01677E-06
 -1       537-7.38764E-05 2.31757E-04-5.76307E-05 4.77038E-06 8.87067E-06 2.66829E-06
 -1       538-7.28539E-05 2.30381E-04-6.14460E-05 5.87925E-06 9.64963E-06 1.89727E-06
 -1       539-7.29490E-05 2.35402E-04-6.43624E-05 3.98285E-06 9.69481E-06 1.17393E-06
 -1       540-8.12201E-05 2.61346E-04-7.24940E-05 8.98792E-07-1.26178E-07-9.61249E-07
 -1       541-8.16809E-05 2.58536E-04-7.05112E-05 6.35059E-07-1.44045E-07 5.17396E-07
 -1       542-8.29766E-05 2.52637E-04-6.46852E-05 1.16400E-06-6.12822E-07 2.04914E-06
 -1       543-8.01227E-05 2.49029E-04-6.48459E-05 1.46682E-06 3.21859E-06 1.46296E-06
 -1       544-8.11131E-05 2.46848E-04-6.22179E-05 2.89937E-06 5.24786E-06 2.44671E-06
 -1       545-7.93059E-05 2.46368E-04-6.48970E-05 2.85093E-06 7.88803E-06 4.56576E-06
 -1       546-7.37323E-05 2.32625E-04-6.39874E-05 5.15865E-06 5.59330E-06 3.18052E-06
 -1       547-7.57790E-05 2.47155E-04-7.06701E-05 1.86867E-06 3.31014E-07-4.47785E-07
 -1       548-7.45711E-05 2.45612E-04-7.17689E-05 3.16790E-06-2.36849E-06-3.31385E-08
 -1       549-7.47938E-05 2.38097E-04-6.56420E-05 3.72172E-06-1.46750E-06 1.79694E-06
 -1       550-7.33519E-05 2.38705E-04-6.78208E-05 3.02456E-06 5.61990E-07 2.00580E-06
 -1       551-7.11711E-05 2.25714E-04-6.10540E-05 4.41269E-06 1.68126E-06 1.85372E-06
 -1       552-7.04495E-05 2.31953E-04-6.49005E-05 6.58803E-06 1.56286E-06 3.02279E-06
 -1       553-6.55971E-05 2.19045E-04-6.36378E-05 6.39442E-06 3.10724E-06 5.08288E-07
 -1       554-7.86279E-05 2.54714E-04-7.34402E-05 3.35476E-06-1.21135E-06 1.94585E-07
 -1       555-8.17361E-05 2.57090E-04-7.10305E-05 4.48181E-06 3.16425E-07 5.93448E-07
 -1       556-7.93457E-05 2.48690E-04-6.82908E-05 6.16797E-06-1.48377E-06 1.27460E-06
 -1       557-7.66233E-05 2.45642E-04-6.96283E-05 5.64201E-06-8.92007E-07 2.02402E-06
 -1       558-7.57907E-05 2.41656E-04-6.65706E-05 5.17498E-06-2.92498E-07 2.76356E-06
 -1       559-6.64419E-05 2.23026E-04-6.34305E-05 5.82452E-06-2.71437E-07-2.70366E-07
 -1       560-6.99503E-05 2.24316E-04-6.27462E-05 7.05007E-06 1.00153E-06 2.22522E-07
 -1       561-7.55133E-05 2.46865E-04-7.18032E-05 3.88395E-06-4.22094E-07 5.70138E-07
 -1       562-7.36710E-05 2.39901E-04-6.88304E-05 4.46871E-06-2.77843E-07 7.37565E-07
 -1       563-6.96217E-05 2.28195E-04-6.53263E-05 3.14528E-06-1.36613E-06 1.24232E-06
 -1       564-6.91873E-05 2.33275E-04-6.86800E-05 4.31649E-06-2.19870E-06 1.10166E-06
 -1       565-6.57571E-05 2.19717E-04-6.30509E-05 4.29592E-06-2.09069E-06 1.53701E-06
 -1       566-6.24668E-05 2.13647E-04-6.22211E-05 5.04246E-06-1.77388E-06 1.23344E-06
 -1       567-6.32497E-05 2.10536E-04-6.11482E-05 6.84822E-06-1.60355E-06-7.14726E-07
 -1       568-7.03811E-05 2.38835E-04-7.08385E-05 3.38773E-06-1.61530E-07 7.95502E-07
 -1       569-6.98750E-05 2.35623E-04-6.85680E-05 4.70869E-06-4.23062E-07 2.61729E-07
 -1       570-6.75973E-05 2.28080E-04-6.67607E-05 6.09324E-06-2.90917E-06 1.76052E-06
 -1       571-6.68747E-05 2.23655E-04-6.52947E-05 3.05417E-06-2.36997E-06 9.18301E-07
 -1       572-6.43359E-05 2.13801E-04-6.09063E-05 5.10102E-06-2.41282E-06 1.22310E-06
 -1       573-6.37282E-05 2.18595E-04-6.48028E-05 3.23895E-06-3.16451E-06 3.80561E-06
 -1       574-6.25101E-05 2.10585E-04-6.03858E-05 4.45057E-06-2.95276E-06 4.10681E-07
 -1       575-7.29554E-05 2.41086E-04-6.90336E-05 9.84045E-07 4.69071E-06 1.50756E-07
 -1       576-6.98397E-05 2.31630E-04-6.79564E-05 4.91712E-06-7.32133E-07 7.37579E-07
 -1       577-7.24980E-05 2.35915E-04-6.78933E-05 2.98868E-06-3.32590E-06 3.19292E-07
 -1       578-7.10216E-05 2.29199E-04-6.60074E-05 1.78159E-06-2.33592E-06 5.31510E-07
 -1       579-7.07248E-05 2.26295E-04-6.40300E-05 9.53565E-07-2.40020E-06 1.83936E-06
 -1       580-6.47722E-05 2.10864E-04-6.16557E-05 4.08854E-06-3.79895E-06 1.12872E-06
 -1       581-6.27725E-05 2.04221E-04-5.79638E-05 1.55721E-06-5.41263E-06 3.21840E-07
 -1       582-6.92326E-05 2.28583E-04-6.77253E-05 3.11927E-06 4.04181E-07 5.60527E-07
 -1       583-6.79474E-05 2.33060E-04-6.92154E-05 4.19758E-06-1.27618E-06-2.91892E-07
 -1       584-6.63446E-05 2.17535E-04-6.34898E-05 3.82071E-06-2.83901E-06 2.92243E-07
 -1       585-6.57879E-05 2.18836E-04-6.51337E-05 2.93844E-06-3.23078E-06 8.10721E-07
 -1       586-6.43196E-05 2.09927E-04-6.11136E-05 4.71295E-06-3.71710E-06 7.88879E-07
 -1       587-6.22497E-05 2.09849E-04-6.15176E-05 4.25813E-06-3.82315E-06 1.16636E-06
 -1       588-5.97166E-05 1.99236E-04-5.91556E-05 4.37755E-06-3.40687E-06 2.17673E-07
 -1       589-7.08658E-05 2.32607E-04-6.87635E-05 6.70013E-06 8.04772E-07 1.82800E-06
 -1       590-6.77878E-05 2.24037E-04-6.58683E-05 4.83967E-06-1.68186E-06 1.44417E-06
 -1       591-6.96598E-05 2.25212E-04-6.50616E-05 5.17626E-06-2.87926E-06 2.63454E-07
 -1       592-6.71018E-05 2.19720E-04-6.48834E-05 5.62331E-06-3.24617E-06 8.71877E-07
 -1       593-6.74637E-05 2.16638E-04-6.19957E-05 6.23077E-06-3.62882E-06 8.69793E-07
 -1       594-6.45555E-05 2.08277E-04-6.05529E-05 5.80749E-06-3.59490E-06 5.03839E-08
 -1       595-6.38344E-05 2.06771E-04-5.93637E-05 5.81166E-06-3.70347E-06-5.18040E-07
 -1       596-6.48441E-05 2.16979E-04-6.47791E-05 5.25385E-06 1.37744E-07 3.93433E-07
 -1       597-6.36561E-05 2.13645E-04-6.30341E-05 4.44433E-06-1.20565E-06 1.06283E-06
 -1       598-6.27893E-05 2.09324E-04-6.23377E-05 4.80636E-06-2.54883E-06 5.61909E-07
 -1       599-6.09067E-05 2.08840E-04-6.31073E-05 3.74613E-06-3.65569E-06 7.52782E-07
 -1       600-6.04034E-05 2.00205E-04-5.90916E-05 3.55156E-06-3.57848E-06 5.12522E-07
 -1       601-5.94423E-05 1.98473E-04-5.78507E-05 5.14801E-06-4.73143E-06-4.37494E-07
 -1       602-5.67467E-05 1.92057E-04-5.71663E-05 4.41577E-06-2.70279E-06-2.87547E-07
 -1       603-6.37682E-05 2.14350E-04-6.35288E-05 5.17155E-06-1.28459E-06-1.96957E-07
 -1       604-6.27899E-05 2.09456E-04-6.13419E-05 4.39710E-06-1.26650E-06 3.63285E-07
 -1       605-6.10201E-05 2.07563E-04-6.15409E-05 4.97913E-06-3.88627E-06 8.99423E-07
 -1       606-5.95187E-05 2.02962E-04-6.14833E-05 3.36093E-06-3.15489E-06 3.71683E-07
 -1       607-5.83333E-05 1.96294E-04-5.78142E-05 4.80855E-06-3.44904E-06 4.67641E-07
 -1       608-5.76447E-05 1.92678E-04-5.65799E-05 4.89042E-06-4.12858E-06 7.40554E-07
 -1       609-5.63903E-05 1.89125E-04-5.52072E-05 4.29048E-06-3.16348E-06 1.76368E-09
 -1       610-6.65881E-05 2.16904E-04-6.32574E-05 4.44382E-06-2.98257E-07 1.32769E-07
 -1       611-6.71203E-05 2.14328E-04-6.14208E-05 3.82480E-06-1.28626E-06 5.29928E-07
 -1       612-6.55818E-05 2.10547E-04-6.04773E-05 2.47668E-06-3.19815E-06 6.35861E-07
 -1       613-6.32472E-05 2.06965E-04-6.05794E-05 2.55699E-06-3.10414E-06 3.10322E-07
 -1       614-6.28863E-05 2.03188E-04-5.82817E-05 2.68659E-06-3.72755E-06 7.53141E-07
 -1       615-6.23205E-05 2.01958E-04-5.83648E-05 3.06861E-06-3.65021E-06 2.46161E-06
 -1       616-5.82830E-05 1.89142E-04-5.39494E-05 3.58905E-06-2.75547E-06 7.15311E-08
 -1       617-6.11678E-05 2.02097E-04-5.99354E-05 4.44417E-06-1.39865E-06-1.55117E-07
 -1       618-5.97814E-05 2.00450E-04-5.94806E-05 2.47842E-06-1.39406E-06-3.66602E-08
 -1       619-5.95374E-05 1.97345E-04-5.83884E-05 3.24736E-06-2.53914E-06 1.52037E-07
 -1       620-5.86733E-05 1.96751E-04-5.86566E-05 2.31963E-06-3.18174E-06 3.06162E-07
 -1       621-5.68784E-05 1.87857E-04-5.55978E-05 2.84963E-06-4.33147E-06 2.58741E-07
 -1       622-5.69392E-05 1.88866E-04-5.55996E-05 2.23959E-06-3.10576E-06 6.08268E-07
 -1       623-5.47499E-05 1.82319E-04-5.35835E-05 3.73734E-06-3.03454E-06-2.99567E-07
 -1       624-6.10926E-05 2.03948E-04-5.99450E-05 4.38315E-06-2.14213E-06 6.12373E-07
 -1       625-5.89116E-05 1.95255E-04-5.76380E-05 4.12809E-06-1.48844E-06 3.34385E-07
 -1       626-5.84566E-05 1.94372E-04-5.69552E-05 4.13702E-06-2.72030E-06 2.77541E-08
 -1       627-5.71606E-05 1.90455E-04-5.63060E-05 3.61694E-06-2.57009E-06 3.69889E-09
 -1       628-5.74440E-05 1.90288E-04-5.56132E-05 3.95441E-06-5.35523E-06 8.51880E-07
 -1       629-5.49101E-05 1.82912E-04-5.42179E-05 3.96656E-06-3.55935E-06-6.37235E-07
 -1       630-5.66434E-05 1.85412E-04-5.40706E-05 5.62817E-06-1.97153E-06-2.34948E-07
 -1       631-5.85891E-05 1.95247E-04-5.81042E-05 4.03212E-06-2.97566E-07 1.96340E-08
 -1       632-5.75792E-05 1.90587E-04-5.63612E-05 4.21807E-06-1.29433E-06 1.04259E-07
 -1       633-5.62932E-05 1.86384E-04-5.47686E-05 4.23023E-06-2.91728E-06-4.15559E-09
 -1       634-5.49698E-05 1.83968E-04-5.52573E-05 3.51430E-06-3.26035E-06 3.18411E-07
 -1       635-5.45456E-05 1.81845E-04-5.41953E-05 3.38410E-06-4.70970E-06-8.20271E-08
 -1       636-5.28327E-05 1.77334E-04-5.26852E-05 4.01790E-06-3.46638E-06 1.22589E-07
 -1       637-5.24800E-05 1.76123E-04-5.31566E-05 4.31700E-06-3.15798E-06 5.74958E-08
 -1       638-5.62764E-05 1.87659E-04-5.58347E-05 4.71973E-06-1.04210E-06-3.21814E-07
 -1       639-5.57900E-05 1.86500E-04-5.48525E-05 4.87489E-06-9.13049E-07-4.36452E-07
 -1       640-5.42758E-05 1.81399E-04-5.33048E-05 4.30292E-06-3.07593E-06 1.45889E-07
 -1       641-5.39429E-05 1.82655E-04-5.42838E-05 3.78018E-06-3.81874E-06 2.53190E-07
 -1       642-5.29242E-05 1.77485E-04-5.23061E-05 4.41432E-06-3.68617E-06 4.40507E-07
 -1       643-5.17890E-05 1.78367E-04-5.30169E-05 3.68561E-06-3.45060E-06 9.78129E-07
 -1       644-5.12815E-05 1.73307E-04-5.14365E-05 4.25334E-06-2.65682E-06 2.42382E-07
 -1       645-5.57693E-05 1.87032E-04-5.49371E-05 4.18208E-06-9.29086E-07-7.76902E-07
 -1       646-5.62165E-05 1.84322E-04-5.34689E-05 4.03288E-06-4.62754E-07 1.40872E-07
 -1       647-5.64421E-05 1.83785E-04-5.33457E-05 4.03002E-06-2.53887E-06 1.42678E-07
 -1       648-5.53515E-05 1.82277E-04-5.37816E-05 3.15491E-06-3.91563E-06 1.64529E-07
 -1       649-5.49264E-05 1.79493E-04-5.25241E-05 3.44612E-06-3.69626E-06 6.17005E-07
 -1       650-5.23025E-05 1.74036E-04-5.16080E-05 3.56502E-06-3.19939E-06-1.15037E-07
 -1       651-5.13612E-05 1.71748E-04-5.05404E-05 3.31292E-06-2.60873E-06 4.63962E-07
 -1       652-5.37211E-05 1.79975E-04-5.39624E-05 4.16082E-06-3.83444E-07 1.63187E-07
 -1       653-5.28481E-05 1.75796E-04-5.19922E-05 3.65449E-06-1.00165E-06-4.43728E-08
 -1       654-5.22349E-05 1.73568E-04-5.14628E-05 3.81651E-06-2.93714E-06 4.24786E-08
 -1       655-5.17348E-05 1.73686E-04-5.20588E-05 2.98734E-06-3.70337E-06 1.04386E-07
 -1       656-5.09167E-05 1.69925E-04-5.05386E-05 3.89492E-06-4.13909E-06 9.49618E-08
 -1       657-4.99228E-05 1.68238E-04-5.01183E-05 2.98283E-06-3.38693E-06-4.07233E-08
 -1       658-4.95916E-05 1.66393E-04-4.99153E-05 4.00675E-06-2.57170E-06-1.07517E-07
 -1       659-5.13558E-05 1.72365E-04-5.14609E-05 3.19138E-06-2.43874E-07-1.72852E-07
 -1       660-5.11617E-05 1.70411E-04-5.05410E-05 3.78849E-06-1.40469E-06-1.15043E-07
 -1       661-5.03007E-05 1.67876E-04-4.98502E-05 4.12803E-06-3.11277E-06 3.50885E-08
 -1       662-4.95648E-05 1.68001E-04-5.07557E-05 2.97221E-06-3.84640E-06 1.02516E-07
 -1       663-4.93375E-05 1.64968E-04-4.90071E-05 4.08357E-06-3.66610E-06 2.09469E-07
 -1       664-4.88415E-05 1.62851E-04-4.83826E-05 4.21829E-06-3.49823E-06 1.17905E-07
 -1       665-4.85408E-05 1.61975E-04-4.83563E-05 3.90098E-06-2.58263E-06 2.62255E-07
 -1       666-5.13787E-05 1.68882E-04-4.98584E-05 2.84388E-06 2.61636E-07-1.66867E-07
 -1       667-5.10996E-05 1.68450E-04-4.98963E-05 2.77146E-06-1.04122E-06 1.22214E-07
 -1       668-5.00873E-05 1.65823E-04-4.89745E-05 3.82682E-06-2.90974E-06 1.62525E-07
 -1       669-4.98067E-05 1.65614E-04-4.94829E-05 2.59701E-06-3.77319E-06 8.78558E-08
 -1       670-4.93760E-05 1.62991E-04-4.79919E-05 3.94617E-06-3.76662E-06 1.51036E-07
 -1       671-4.98886E-05 1.63385E-04-4.79655E-05 2.81974E-06-4.14011E-06 9.96508E-08
 -1       672-4.91309E-05 1.62698E-04-4.81939E-05 3.08759E-06-2.44463E-06 6.22103E-07
 -1       673-4.83597E-05 1.60997E-04-4.82394E-05 3.64665E-06-1.65978E-07-1.69409E-10
 -1       674-4.90556E-05 1.62086E-04-4.83179E-05 3.69166E-06-9.40997E-07-7.92306E-08
 -1       675-4.79219E-05 1.59844E-04-4.77047E-05 4.23493E-06-3.10562E-06-1.39352E-08
 -1       676-4.77592E-05 1.59896E-04-4.79125E-05 3.28854E-06-3.64023E-06 1.42055E-07
 -1       677-4.72062E-05 1.57598E-04-4.69329E-05 4.36905E-06-3.80394E-06 1.58952E-07
 -1       678-4.73247E-05 1.57044E-04-4.67552E-05 3.71099E-06-3.93919E-06 2.49672E-07
 -1       679-4.71134E-05 1.56949E-04-4.71290E-05 3.72331E-06-2.75481E-06 2.49768E-07
 -1       680-4.76899E-05 1.58396E-04-4.73253E-05 3.53678E-06-4.06899E-07-1.47640E-07
 -1       681-4.78065E-05 1.57804E-04-4.67068E-05 3.60219E-06-8.52596E-07-4.24479E-08
 -1       682-4.74180E-05 1.57027E-04-4.66674E-05 3.80347E-06-2.92822E-06-1.83906E-10
 -1       683-4.70959E-05 1.56265E-04-4.65711E-05 3.34346E-06-3.61074E-06 1.22743E-07
 -1       684-4.70109E-05 1.55497E-04-4.60544E-05 3.88832E-06-3.77935E-06 6.99613E-08
 -1       685-4.63791E-05 1.54497E-04-4.61708E-05 3.59062E-06-4.11450E-06 9.81617E-08
 -1       686-4.61107E-05 1.53028E-04-4.56810E-05 3.90634E-06-2.54610E-06 1.81884E-07
 -1       687-4.59243E-05 1.52291E-04-4.56805E-05 3.57260E-06-3.46180E-07 1.02566E-07
 -1       688-4.58628E-05 1.51885E-04-4.53934E-05 3.79638E-06-1.25118E-06 9.73566E-10
 -1       689-4.56320E-05 1.51192E-04-4.52304E-05 4.15093E-06-2.95846E-06-3.53668E-08
 -1       690-4.54482E-05 1.50997E-04-4.51846E-05 3.38887E-06-3.54275E-06-8.93767E-08
 -1       691-4.53108E-05 1.50801E-04-4.52002E-05 4.27865E-06-3.82933E-06-7.18139E-08
 -1       692-4.49443E-05 1.49938E-04-4.51277E-05 3.84459E-06-3.90661E-06-1.81957E-07
 -1       693-4.52997E-05 1.49300E-04-4.46158E-05 4.21864E-06-2.77320E-06-9.93335E-08
 -1       694-4.33596E-05 1.44659E-04-4.32600E-05 3.72723E-06-4.35205E-07 2.24921E-08
 -1       695-4.36024E-05 1.46194E-04-4.39653E-05 3.58725E-06-1.16751E-06 1.29691E-07
 -1       696-4.36655E-05 1.46029E-04-4.38096E-05 4.09607E-06-2.84269E-06 3.03227E-08
 -1       697-4.37299E-05 1.46001E-04-4.36984E-05 3.31176E-06-3.68219E-06-7.64186E-08
 -1       698-4.35505E-05 1.45960E-04-4.37589E-05 4.25266E-06-3.82051E-06-6.89180E-08
 -1       699-4.38683E-05 1.47059E-04-4.41040E-05 4.39150E-06-3.92486E-06 1.75758E-07
 -1       700-4.37456E-05 1.45935E-04-4.37412E-05 4.84102E-06-2.34231E-06-6.82460E-08
 -1       701-4.19771E-05 1.40872E-04-4.22545E-05 3.91631E-06-2.63880E-07-3.21030E-07
 -1       702-4.19370E-05 1.40568E-04-4.23862E-05 3.58437E-06-1.30264E-06-5.25443E-08
 -1       703-4.27682E-05 1.42375E-04-4.28892E-05 3.85436E-06-3.27062E-06 2.06928E-07
 -1       704-4.25072E-05 1.42227E-04-4.29629E-05 3.28845E-06-3.47579E-06 7.08747E-08
 -1       705-4.25133E-05 1.41792E-04-4.26735E-05 3.98246E-06-3.95823E-06-2.09153E-07
 -1       706-4.28041E-05 1.43282E-04-4.32964E-05 4.35981E-06-3.80251E-06-9.02833E-08
 -1       707-4.32349E-05 1.43610E-04-4.25575E-05 4.37369E-06-2.93103E-06 8.03682E-08
 -1       708-4.07716E-05 1.36562E-04-4.13338E-05 3.81333E-06-2.49100E-07-7.00059E-08
 -1       709-4.07455E-05 1.35690E-04-4.08580E-05 3.51240E-06-1.65895E-06-9.54196E-08
 -1       710-4.11595E-05 1.37755E-04-4.16873E-05 3.44784E-06-2.95316E-06 3.68751E-08
 -1       711-4.09813E-05 1.37139E-04-4.13788E-05 2.91350E-06-3.62360E-06 7.31069E-09
 -1       712-4.14984E-05 1.39084E-04-4.20530E-05 3.57727E-06-3.84874E-06-3.70279E-08
 -1       713-4.18375E-05 1.39535E-04-4.18983E-05 3.45016E-06-3.96392E-06-1.89822E-07
 -1       714-4.17067E-05 1.40046E-04-4.21851E-05 4.10460E-06-2.64069E-06-1.64107E-07
 -1       715-3.85869E-05 1.30100E-04-4.00965E-05 3.55890E-06-5.17543E-08-1.52052E-08
 -1       716-3.91981E-05 1.29970E-04-3.93637E-05 3.98182E-06-1.48644E-06-2.48762E-07
 -1       717-3.83879E-05 1.30442E-04-4.02094E-05 3.46132E-06-3.11752E-06 2.63739E-08
 -1       718-3.87162E-05 1.30297E-04-3.96859E-05 2.66770E-06-3.90159E-06-1.65008E-07
 -1       719-3.88151E-05 1.32626E-04-4.09886E-05 3.32137E-06-3.95498E-06 2.37061E-09
 -1       720-3.92411E-05 1.33160E-04-4.08052E-05 3.10754E-06-4.14008E-06-8.46902E-08
 -1       721-4.00199E-05 1.35645E-04-4.13982E-05 3.92153E-06-2.95212E-06-3.63614E-07
 -1       722-3.81199E-05 1.26069E-04-3.83891E-05 3.63409E-06-6.29294E-07-2.01347E-08
 -1       723-3.83175E-05 1.25961E-04-3.84859E-05 4.48783E-06-1.09535E-06 1.41602E-07
 -1       724-3.89865E-05 1.29009E-04-3.95206E-05 4.18310E-06-3.15248E-06-5.88262E-09
 -1       725-3.91402E-05 1.28483E-04-3.88254E-05 3.38821E-06-3.76867E-06-1.45134E-07
 -1       726-3.95460E-05 1.31627E-04-4.01379E-05 4.18593E-06-3.64977E-06-1.64716E-07
 -1       727-4.00915E-05 1.33177E-04-4.06346E-05 4.22544E-06-3.62848E-06-4.01684E-08
 -1       728-4.02834E-05 1.32892E-04-4.02944E-05 3.99926E-06-2.64557E-06 3.88735E-09
 -1       729-3.57221E-05 1.19128E-04-3.64113E-05 3.51076E-06-5.83307E-07-4.24037E-07
 -1       730-3.62865E-05 1.22055E-04-3.75047E-05 4.68018E-06-1.45625E-06-2.18288E-07
 -1       731-3.71133E-05 1.24482E-04-3.82357E-05 4.30658E-06-3.24081E-06-1.89324E-07
 -1       732-3.75246E-05 1.24663E-04-3.79077E-05 3.60400E-06-2.99831E-06-3.98145E-07
 -1       733-3.77230E-05 1.26834E-04-3.88849E-05 4.35085E-06-3.52406E-06-6.62818E-08
 -1       734-3.82334E-05 1.29108E-04-3.95926E-05 4.66950E-06-3.61784E-06-9.75291E-08
 -1       735-3.89007E-05 1.29884E-04-3.89906E-05 4.12685E-06-2.61707E-06-1.64697E-07
 -1       736-3.39224E-05 1.13355E-04-3.46532E-05 3.84108E-06-4.25677E-07-6.84964E-07
 -1       737-3.31423E-05 1.14079E-04-3.53116E-05 4.48280E-06-2.05703E-06-3.13684E-07
 -1       738-3.47123E-05 1.17401E-04-3.70638E-05 4.00302E-06-3.79587E-06-1.91019E-07
 -1       739-3.48319E-05 1.19419E-04-3.71868E-05 4.19281E-06-2.76736E-06-1.87741E-07
 -1       740-3.43880E-05 1.20054E-04-3.79712E-05 4.86043E-06-3.63770E-06-1.87932E-07
 -1       741-3.47774E-05 1.20944E-04-3.80631E-05 4.76010E-06-3.71519E-06-2.70035E-07
 -1       742-3.55852E-05 1.21056E-04-3.72540E-05 4.11547E-06-2.82925E-06-3.35329E-07
 -1       743-3.19001E-05 1.08981E-04-3.35851E-05 3.49518E-06-1.19979E-06 5.22912E-08
 -1       744-3.29533E-05 1.09715E-04-3.42343E-05 3.63795E-06-2.55426E-06-1.41156E-07
 -1       745-3.40526E-05 1.15431E-04-3.63321E-05 4.26505E-06-3.74396E-06-1.33927E-07
 -1       746-3.46549E-05 1.16537E-04-3.63468E-05 3.03851E-06-3.17275E-06-1.76086E-08
 -1       747-3.48805E-05 1.20502E-04-3.79748E-05 4.47682E-06-3.16841E-06-1.97514E-07
 -1       748-3.55008E-05 1.21824E-04-3.78741E-05 3.96450E-06-2.88043E-06-2.97175E-07
 -1       749-3.64043E-05 1.24665E-04-3.84336E-05 3.89047E-06-1.96567E-06-4.85009E-07
 -1       750-2.95691E-05 9.86170E-05-3.11670E-05 1.67257E-06-6.60892E-07 5.62034E-07
 -1       751-2.95750E-05 1.05211E-04-3.38014E-05 4.17765E-06-2.80602E-06-4.52076E-07
 -1       752-3.13771E-05 1.06268E-04-3.40826E-05 3.97206E-06-4.87894E-06-1.46346E-08
 -1       753-3.11171E-05 1.09041E-04-3.55700E-05 2.58593E-06-3.20222E-06 1.47922E-07
 -1       754-3.06743E-05 1.11078E-04-3.69217E-05 3.60035E-06-2.92932E-06-7.71429E-08
 -1       755-3.13666E-05 1.11523E-04-3.64184E-05 2.58770E-06-2.77810E-06-8.88768E-08
 -1       756-3.27413E-05 1.15343E-04-3.70345E-05 3.01723E-06-1.97949E-06-2.92414E-07
 -1       757-3.09741E-05 9.83111E-05-2.93445E-05 3.27678E-06-1.87005E-06 1.97210E-07
 -1       758-3.07510E-05 1.00647E-04-3.21659E-05 4.08834E-06-3.06457E-06-6.30806E-07
 -1       759-3.19679E-05 1.04912E-04-3.34467E-05 6.35603E-06-5.03693E-06-1.02467E-06
 -1       760-3.32250E-05 1.08706E-04-3.42096E-05 4.53208E-06-3.64275E-06-2.82142E-07
 -1       761-3.36950E-05 1.13604E-04-3.66601E-05 5.13399E-06-2.45266E-06-1.65522E-07
 -1       762-3.48371E-05 1.16316E-04-3.70994E-05 5.74924E-06-1.91088E-06 1.57955E-07
 -1       763-3.46611E-05 1.15281E-04-3.60847E-05 3.70786E-06-1.45077E-06 2.29544E-07
 -1       764-2.59559E-05 8.75587E-05-2.74361E-05 4.69559E-06-2.53778E-06-3.01900E-07
 -1       765-2.84488E-05 9.56903E-05-3.10944E-05 5.19323E-06-3.27623E-06-4.16520E-07
 -1       766-3.01859E-05 1.03593E-04-3.31220E-05 6.07632E-06-4.49659E-06-4.97322E-07
 -1       767-3.14005E-05 1.04167E-04-3.30408E-05 5.12390E-06-3.31544E-06-6.05442E-07
 -1       768-3.19555E-05 1.08529E-04-3.45479E-05 6.59893E-06-2.56451E-06 1.28274E-07
 -1       769-3.41622E-05 1.12795E-04-3.60148E-05 6.04697E-06-2.17173E-06 8.30868E-07
 -1       770-3.40497E-05 1.08710E-04-3.29660E-05 5.34715E-06-1.15248E-06 9.44855E-07
 -1       771-1.88571E-05 7.52057E-05-2.60815E-05 5.22213E-06-3.81452E-06-1.33200E-06
 -1       772-2.21055E-05 8.25060E-05-2.85704E-05 6.41944E-06-2.76620E-06-1.27837E-06
 -1       773-2.34700E-05 8.63334E-05-2.99307E-05 6.85599E-06-3.94363E-06-8.18116E-07
 -1       774-2.51532E-05 9.07412E-05-3.03322E-05 6.21712E-06-3.43999E-06-2.49376E-07
 -1       775-2.53563E-05 9.25875E-05-3.14306E-05 7.13098E-06-2.59125E-06-2.32905E-07
 -1       776-2.88055E-05 9.99581E-05-3.28666E-05 7.07158E-06-2.92210E-06 1.07292E-06
 -1       777-3.07368E-05 1.00131E-04-3.14132E-05 7.44385E-06 1.68004E-07-8.46864E-08
 -1       778-2.36167E-05 8.06201E-05-2.59511E-05 5.12909E-06-1.97245E-06-1.10083E-06
 -1       779-2.44053E-05 8.25783E-05-2.64998E-05 5.85329E-06-2.26836E-06-1.40991E-06
 -1       780-2.60353E-05 9.08800E-05-2.71608E-05 6.08989E-06-2.45515E-06-1.14997E-06
 -1       781-2.53358E-05 8.65100E-05-2.58057E-05 4.50917E-06-2.54952E-06-7.78177E-07
 -1       782-2.92588E-05 9.90500E-05-2.90175E-05 6.11947E-06-3.56587E-06 8.27847E-09
 -1       783-2.78849E-05 9.60681E-05-2.90708E-05 7.24679E-06-4.27164E-06 7.03912E-07
 -1       784-3.12848E-05 1.05693E-04-3.14784E-05 4.72078E-06-1.28042E-06 3.01727E-07
 -1       785-1.94765E-05 6.68638E-05-2.05228E-05 2.27374E-06-5.44101E-07-4.51427E-07
 -1       786-2.15619E-05 7.61821E-05-2.35441E-05 1.64001E-06 1.57308E-06-1.14155E-06
 -1       787-1.94387E-05 7.31130E-05-2.08268E-05 1.05226E-07 9.77707E-08-1.62334E-06
 -1       788-1.97811E-05 7.38327E-05-1.99888E-05-9.85789E-07-2.66089E-08-8.46375E-07
 -1       789-2.27480E-05 8.01533E-05-2.05266E-05 1.30137E-06-3.34803E-06-8.12849E-07
 -1       790-2.34740E-05 9.05539E-05-2.27457E-05 6.63897E-07-9.30986E-06-3.73849E-07
 -1       791-2.21418E-05 8.91905E-05-2.91820E-05-2.36936E-07-6.53473E-06 5.67625E-07
 -1       792-9.20042E-06 6.16559E-05-2.12833E-05-4.85825E-06-1.05823E-06 3.88589E-06
 -1       793-1.55379E-05 7.10833E-05-1.11912E-05-1.16577E-05 7.38803E-06-2.59857E-07
 -1       794-1.78685E-05 7.27480E-05-1.21632E-05-9.62278E-06 2.06953E-06-1.00587E-07
 -1       795-1.89740E-05 7.75762E-05-1.18703E-05-8.88917E-06-1.81376E-06-1.63414E-07
 -1       796-1.95079E-05 8.05283E-05-9.92327E-06-1.18812E-05-6.57943E-06 7.71376E-07
 -1       797-2.28015E-05 8.78473E-05-1.55490E-05-9.23584E-06-1.18955E-05-1.24406E-06
 -1       798-2.19582E-05 9.55285E-05-2.13765E-05-1.11625E-05-1.17581E-05-1.71517E-06
 -1       799-6.94716E-05 2.88184E-04-9.75139E-05-4.82354E-06 2.45454E-05-2.11725E-06
 -1       800-5.20815E-05 2.51614E-04-8.82185E-05-2.52784E-05 2.25229E-05-2.29696E-07
 -1       801-4.38884E-05 2.61081E-04-1.04072E-04-3.61847E-05 2.57017E-05 8.00911E-06
 -1       802-5.31134E-05 2.30540E-04-7.18139E-05-4.62845E-05 2.18204E-05-8.03599E-06
 -1       803-5.20621E-05 2.54131E-04-9.02908E-05-4.27698E-05 4.69188E-05 1.18706E-05
 -1       804-7.15113E-05 2.86346E-04-9.58277E-05-1.60258E-05 1.98176E-05-8.66497E-06
 -1       805-6.58232E-05 2.46367E-04-7.78794E-05-2.13885E-05 2.33656E-05-1.36381E-05
 -1       806-5.76519E-05 2.29861E-04-7.44597E-05-3.33694E-05 1.41319E-05-1.13027E-05
 -1       807-6.45464E-05 2.12990E-04-7.09411E-05-2.75890E-05 2.90909E-05-2.94307E-05
 -1       808-4.64518E-05 1.80295E-04-6.30749E-05-1.33766E-05 6.69366E-05-1.15999E-05
 -1       809-7.40187E-05 2.56776E-04-7.86944E-05-1.10974E-05 1.47206E-05-6.80101E-06
 -1       810-6.68295E-05 2.21485E-04-6.07273E-05-1.15396E-05 2.00462E-05-1.31077E-05
 -1       811-6.26393E-05 1.93998E-04-5.46517E-05-8.33920E-06 2.49849E-05-1.94083E-05
 -1       812-5.27219E-05 1.58609E-04-4.41224E-05-3.56144E-06 3.11222E-05-2.18257E-05
 -1       813-5.51373E-05 1.40200E-04-3.22727E-05 4.02321E-06 4.49169E-05-1.58460E-05
 -1       814-7.38033E-05 2.38412E-04-6.99423E-05-4.95249E-06 1.17336E-05-4.96428E-06
 -1       815-6.49869E-05 1.98029E-04-5.52817E-05 2.95009E-06 1.67434E-05-9.05644E-06
 -1       816-5.87015E-05 1.79686E-04-5.03654E-05 1.41400E-06 1.48926E-05-1.33838E-05
 -1       817-4.17651E-05 1.24039E-04-3.33270E-05 9.53772E-06 1.98952E-05-1.11352E-05
 -1       818-3.49485E-05 9.04665E-05-1.75493E-05 1.67409E-05 2.78453E-05-7.78324E-06
 -1       819-6.83131E-05 2.23437E-04-6.65797E-05-2.90871E-07 9.92209E-06-2.42066E-06
 -1       820-6.15202E-05 1.85555E-04-5.13610E-05 7.15963E-06 1.22078E-05-5.98890E-06
 -1       821-5.13253E-05 1.47924E-04-4.27118E-05 1.02380E-05 1.08187E-05-7.39674E-06
 -1       822-3.52599E-05 1.02480E-04-2.70803E-05 1.04045E-05 1.46938E-05-5.81429E-06
 -1       823-1.90070E-05 5.05576E-05-1.19000E-05 1.31721E-05 1.96569E-05-2.24741E-06
 -1       824-6.84025E-05 2.17284E-04-6.33796E-05 5.26862E-06 3.18641E-06-4.89134E-07
 -1       825-5.47206E-05 1.70237E-04-4.75678E-05 9.40284E-06 5.84617E-06-3.29950E-06
 -1       826-4.51495E-05 1.33358E-04-3.77816E-05 1.61689E-05 5.76448E-06-4.53469E-06
 -1       827-2.97070E-05 9.33367E-05-2.58906E-05 1.06656E-05 6.80968E-06-2.66247E-06
 -1       828-1.87095E-05 5.01486E-05-1.12246E-05 1.12378E-05 9.29475E-06-3.50314E-06
 -1       829-6.10820E-05 2.02480E-04-6.21560E-05 4.31047E-06 2.75450E-06-1.61271E-06
 -1       830-5.23826E-05 1.65031E-04-4.65796E-05 8.37701E-06 2.88930E-06-5.09344E-06
 -1       831-4.20983E-05 1.29558E-04-3.61582E-05 1.61196E-05 1.14827E-06-4.41453E-06
 -1       832-2.73160E-05 8.66823E-05-2.44571E-05 8.87697E-06 3.38884E-06-6.26051E-06
 -1       833-2.04834E-05 5.78061E-05-1.57497E-05 1.26368E-05 4.21569E-06-6.10392E-06
 -1       834-5.65457E-05 1.91024E-04-5.78654E-05 5.93547E-06 1.64406E-06-3.67071E-06
 -1       835-4.92989E-05 1.58883E-04-4.58976E-05 1.22688E-05 4.10866E-07-5.80199E-06
 -1       836-3.84303E-05 1.23996E-04-3.52628E-05 1.19332E-05-1.69742E-06-6.49278E-06
 -1       837-2.89395E-05 8.95445E-05-2.54630E-05 9.89681E-06 1.61677E-06-6.05251E-06
 -1       838-1.91774E-05 5.55464E-05-1.45930E-05 9.35159E-06 1.82771E-06-3.75768E-06
 -1       839-5.63452E-05 1.88033E-04-5.44462E-05 7.99783E-06 5.82875E-07-7.32297E-06
 -1       840-4.87245E-05 1.55913E-04-4.49870E-05 1.15962E-05 3.47755E-07-6.49951E-06
 -1       841-3.67874E-05 1.15397E-04-3.41922E-05 1.15607E-05-4.74286E-07-7.50895E-06
 -1       842-2.86960E-05 9.04349E-05-2.65777E-05 1.00290E-05-8.99939E-07-4.35703E-06
 -1       843-1.75993E-05 5.29401E-05-1.32515E-05 1.18298E-05-1.40156E-06-3.55532E-06
 -1       844-5.93967E-05 1.92814E-04-5.73515E-05 7.90935E-06-2.02656E-06-2.31522E-06
 -1       845-4.80155E-05 1.55761E-04-4.53923E-05 9.92580E-06-7.01310E-07-2.51965E-06
 -1       846-3.62467E-05 1.23974E-04-3.65101E-05 1.10066E-05-9.54962E-07-4.35846E-06
 -1       847-2.97283E-05 9.68104E-05-2.87480E-05 8.64788E-06-1.48258E-06-2.14719E-06
 -1       848-1.69321E-05 5.70151E-05-1.72680E-05 6.33612E-06-5.39178E-07-4.84932E-07
 -1       849-5.62838E-05 1.86662E-04-5.59057E-05 6.92581E-06-1.21630E-06-1.78502E-06
 -1       850-4.70969E-05 1.53664E-04-4.43391E-05 1.07206E-05-1.16989E-06-2.40676E-06
 -1       851-4.06338E-05 1.25373E-04-3.41687E-05 1.19686E-05-1.61651E-06-3.13586E-06
 -1       852-2.88667E-05 9.53640E-05-2.89960E-05 1.03313E-05-1.83796E-06-2.70418E-06
 -1       853-2.02935E-05 6.58930E-05-1.97646E-05 4.68376E-06-6.69403E-07-2.39361E-06
 -1       854-5.75573E-05 1.87484E-04-5.49106E-05 1.82630E-06-2.06625E-06-2.71937E-06
 -1       855-4.83529E-05 1.56667E-04-4.50304E-05 9.32882E-06-2.58020E-06-3.95570E-06
 -1       856-3.97898E-05 1.25193E-04-3.60135E-05 9.07496E-06-1.23656E-06-4.20470E-06
 -1       857-2.97643E-05 9.82480E-05-2.98253E-05 9.66144E-06-5.61060E-07-3.74545E-06
 -1       858-2.22299E-05 7.04277E-05-2.10433E-05 2.37610E-06 1.04479E-07-2.96841E-06
 -1       859-5.15042E-05 1.75263E-04-5.43590E-05 5.72543E-06-2.29864E-06-3.08033E-06
 -1       860-4.63289E-05 1.52041E-04-4.41820E-05 1.11165E-05-2.73861E-06-4.07888E-06
 -1       861-4.19974E-05 1.28432E-04-3.55654E-05 9.32989E-06-9.24286E-07-5.08931E-06
 -1       862-3.07799E-05 1.02356E-04-3.08219E-05 1.11534E-05-8.60088E-07-3.97926E-06
 -1       863-2.42914E-05 7.85979E-05-2.27092E-05 3.84584E-06-4.67942E-07-2.59744E-06
 -1       864-5.31455E-05 1.80106E-04-5.48031E-05 4.11555E-06-6.69496E-07-2.36110E-06
 -1       865-4.56749E-05 1.51991E-04-4.48627E-05 1.27320E-05-1.00395E-06-5.07008E-06
 -1       866-4.07830E-05 1.32164E-04-3.83725E-05 7.52766E-06-2.82332E-07-5.07358E-06
 -1       867-3.14005E-05 1.04410E-04-3.14700E-05 1.07960E-05-5.31129E-07-4.95674E-06
 -1       868-2.46706E-05 7.98110E-05-2.43678E-05 6.19776E-06-9.29478E-07-6.14607E-06
 -1       869-5.26766E-05 1.77168E-04-5.39261E-05 4.36052E-06-2.89332E-07-9.02241E-07
 -1       870-4.66359E-05 1.53752E-04-4.58865E-05 1.03547E-05-1.33876E-06-1.56995E-06
 -1       871-3.89837E-05 1.29981E-04-3.89403E-05 9.68350E-06-3.54968E-06-3.08595E-06
 -1       872-3.24679E-05 1.08552E-04-3.30569E-05 9.40833E-06-4.47584E-07-2.45403E-06
 -1       873-2.63942E-05 8.67358E-05-2.45319E-05 5.10386E-06-6.66774E-07-1.70470E-06
 -1       874-5.32367E-05 1.76629E-04-5.27497E-05 4.91460E-06-7.01625E-07-1.16775E-06
 -1       875-4.58724E-05 1.52582E-04-4.51244E-05 1.09508E-05-1.30654E-06-3.07169E-06
 -1       876-4.04089E-05 1.32831E-04-3.94195E-05 1.08820E-05-2.41037E-06-3.12944E-06
 -1       877-3.42606E-05 1.12263E-04-3.41175E-05 9.21307E-06-3.34086E-07-2.50343E-06
 -1       878-2.83948E-05 9.15133E-05-2.68723E-05 8.38635E-06 8.90197E-08-1.19821E-06
 -1       879-5.26456E-05 1.73057E-04-5.20521E-05 3.33094E-06-8.99737E-07-1.37874E-06
 -1       880-4.63763E-05 1.52853E-04-4.50326E-05 1.00238E-05-1.58555E-06-3.30277E-06
 -1       881-4.02759E-05 1.32557E-04-3.95343E-05 1.05283E-05-1.45244E-06-3.14252E-06
 -1       882-3.46476E-05 1.14951E-04-3.52633E-05 9.00533E-06-9.46553E-07-2.80372E-06
 -1       883-2.79196E-05 9.31498E-05-2.80676E-05 9.59070E-06 2.89205E-07-2.87823E-06
 -1       884-4.97989E-05 1.67553E-04-5.09661E-05 5.57937E-06-1.67031E-06-1.90145E-06
 -1       885-4.57017E-05 1.51345E-04-4.49881E-05 1.08948E-05-1.99862E-06-3.18598E-06
 -1       886-4.07729E-05 1.34746E-04-3.99464E-05 1.03460E-05-2.54523E-06-3.13668E-06
 -1       887-3.53414E-05 1.17343E-04-3.58189E-05 9.37292E-06-9.26088E-07-2.93507E-06
 -1       888-2.98228E-05 9.95972E-05-2.93816E-05 7.09124E-06-7.18771E-07-1.83133E-06
 -1       889-5.01454E-05 1.66767E-04-4.98015E-05 5.18276E-06-1.58711E-06-1.86411E-06
 -1       890-4.58177E-05 1.51040E-04-4.46602E-05 1.16846E-05-1.50842E-06-3.71946E-06
 -1       891-4.09182E-05 1.34025E-04-4.01234E-05 9.63972E-06-1.22911E-06-2.61693E-06
 -1       892-3.55405E-05 1.19345E-04-3.63534E-05 9.61458E-06-1.14746E-06-2.18366E-06
 -1       893-3.14264E-05 1.01830E-04-3.05622E-05 9.23022E-06-5.45752E-07-1.96057E-06
 -1       894-4.99114E-05 1.66211E-04-5.04448E-05 5.42431E-06-7.66031E-07-3.47030E-07
 -1       895-4.62063E-05 1.52010E-04-4.53267E-05 9.69686E-06-1.58981E-06-9.65117E-07
 -1       896-4.00737E-05 1.36152E-04-4.07115E-05 9.65179E-06-2.64292E-06-1.59054E-06
 -1       897-3.67538E-05 1.22742E-04-3.71711E-05 8.92753E-06-5.66170E-07-1.50077E-06
 -1       898-3.12322E-05 1.04317E-04-3.11373E-05 6.09227E-06-2.13741E-07-3.86380E-07
 -1       899-4.80819E-05 1.63195E-04-4.90337E-05 6.52156E-06-1.08952E-06-1.14368E-06
 -1       900-4.52239E-05 1.50324E-04-4.46883E-05 1.01824E-05-1.40819E-06-1.86465E-06
 -1       901-4.20056E-05 1.38876E-04-4.12765E-05 1.03541E-05-1.92976E-06-1.91729E-06
 -1       902-3.82338E-05 1.26385E-04-3.82293E-05 9.23615E-06-7.19172E-07-1.53762E-06
 -1       903-3.35470E-05 1.13001E-04-3.37382E-05 7.21683E-06-5.92068E-07-9.45484E-07
 -1       904-4.84124E-05 1.60748E-04-4.83604E-05 6.38971E-06-1.44424E-06-1.08772E-06
 -1       905-4.55878E-05 1.50345E-04-4.44989E-05 9.77691E-06-1.45536E-06-1.93158E-06
 -1       906-4.18356E-05 1.38956E-04-4.16565E-05 1.00686E-05-1.23090E-06-1.78589E-06
 -1       907-3.86736E-05 1.29062E-04-3.92048E-05 8.81367E-06-8.71141E-07-1.45145E-06
 -1       908-3.44065E-05 1.13633E-04-3.38992E-05 6.03593E-06-7.23609E-07-2.93148E-07
 -1       909-4.84274E-05 1.61855E-04-4.86430E-05 6.53523E-06-1.24854E-06-1.07351E-06
 -1       910-4.54813E-05 1.50439E-04-4.44058E-05 9.94420E-06-1.96608E-06-1.19346E-06
 -1       911-4.20361E-05 1.40520E-04-4.18746E-05 9.83938E-06-1.75158E-06-1.14538E-06
 -1       912-3.96789E-05 1.31536E-04-3.99612E-05 8.97597E-06-6.14237E-07-1.18114E-06
 -1       913-3.65210E-05 1.20872E-04-3.62821E-05 6.16766E-06 3.26788E-07-1.03701E-06
 -1       914-4.76692E-05 1.57122E-04-4.70098E-05 7.28204E-06-1.62614E-06-6.98225E-07
 -1       915-4.48505E-05 1.49116E-04-4.44557E-05 9.51881E-06-1.79040E-06-7.24679E-07
 -1       916-4.29244E-05 1.41685E-04-4.25918E-05 1.06587E-05-1.37795E-06-1.12804E-06
 -1       917-4.04546E-05 1.35269E-04-4.09437E-05 9.28666E-06-5.64061E-07-5.03042E-07
 -1       918-3.76702E-05 1.26499E-04-3.80500E-05 6.78800E-06 3.47612E-08-6.29003E-07
 -1       919-4.76259E-05 1.57865E-04-4.73360E-05 6.26770E-06-1.36967E-06-5.26615E-08
 -1       920-4.46874E-05 1.49363E-04-4.45616E-05 9.27493E-06-2.02635E-06-8.71771E-07
 -1       921-4.25244E-05 1.42950E-04-4.29325E-05 1.10013E-05-8.90667E-07-1.12149E-06
 -1       922-4.13090E-05 1.36761E-04-4.09876E-05 8.77795E-06-5.96410E-07-7.70099E-07
 -1       923-3.83206E-05 1.28027E-04-3.83952E-05 5.73547E-06-2.57851E-07-9.50247E-08
 -1       924-4.57116E-05 1.52737E-04-4.60930E-05 6.85343E-06-1.45864E-06-7.90533E-07
 -1       925-4.45271E-05 1.48461E-04-4.41909E-05 9.70579E-06-1.80142E-06-8.69508E-07
 -1       926-4.30932E-05 1.44216E-04-4.31660E-05 1.00347E-05-1.36645E-06-8.96580E-07
 -1       927-4.21776E-05 1.40390E-04-4.22346E-05 9.06765E-06-6.55353E-07-7.19783E-07
 -1       928-4.08910E-05 1.35689E-04-4.03743E-05 6.09997E-06-9.16749E-08-6.27324E-07
 -1       929-4.57050E-05 1.51365E-04-4.53813E-05 7.05115E-06-1.05429E-06-3.94928E-07
 -1       930-4.44753E-05 1.48353E-04-4.42869E-05 9.38479E-06-1.67465E-06-4.70120E-07
 -1       931-4.34872E-05 1.45220E-04-4.36815E-05 1.00357E-05-1.06571E-06-5.59314E-07
 -1       932-4.29029E-05 1.43087E-04-4.29832E-05 9.07504E-06-8.52687E-07-3.24338E-07
 -1       933-4.19349E-05 1.40121E-04-4.17246E-05 5.94722E-06-6.41563E-07-4.66874E-07
 -1       934-4.55983E-05 1.50209E-04-4.47378E-05 6.41643E-06-1.46789E-06 2.61500E-08
 -1       935-4.43564E-05 1.47965E-04-4.40241E-05 9.58393E-06-1.75424E-06-7.51495E-08
 -1       936-4.39086E-05 1.46581E-04-4.38244E-05 9.92905E-06-1.33790E-06-1.09373E-07
 -1       937-4.37261E-05 1.45560E-04-4.38017E-05 9.40938E-06-7.28525E-07-9.10941E-08
 -1       938-4.28532E-05 1.43531E-04-4.32083E-05 6.19668E-06-3.33537E-07-1.65035E-07
 -1       939-4.42124E-05 1.46410E-04-4.37865E-05 6.68896E-06-1.63730E-06-2.31402E-07
 -1       940-4.40577E-05 1.47003E-04-4.39780E-05 9.39113E-06-1.54133E-06 6.45044E-08
 -1       941-4.42523E-05 1.47800E-04-4.43871E-05 1.01109E-05-7.86394E-07-1.16833E-07
 -1       942-4.48557E-05 1.49338E-04-4.49751E-05 9.26579E-06-5.75093E-07 6.45894E-08
 -1       943-4.44604E-05 1.49252E-04-4.51181E-05 6.14738E-06-1.30412E-07-1.47254E-07
 -1       944-4.37735E-05 1.45365E-04-4.33188E-05 6.26773E-06-1.82884E-06 3.28674E-07
 -1       945-4.38515E-05 1.47338E-04-4.42143E-05 9.64537E-06-1.30977E-06 6.63099E-07
 -1       946-4.46564E-05 1.49158E-04-4.48450E-05 1.02643E-05-9.03193E-07 2.99949E-07
 -1       947-4.56178E-05 1.51571E-04-4.52715E-05 9.50569E-06-5.72838E-07 8.18406E-07
 -1       948-4.58089E-05 1.52982E-04-4.59854E-05 5.54949E-06-4.06899E-08 2.97785E-07
 -1       949-4.30885E-05 1.43160E-04-4.30300E-05 6.51905E-06-1.35992E-06 2.91404E-07
 -1       950-4.38758E-05 1.46541E-04-4.37906E-05 9.59265E-06-1.28211E-06 6.04870E-07
 -1       951-4.53261E-05 1.50265E-04-4.45693E-05 1.02412E-05-6.63566E-07 6.60416E-07
 -1       952-4.62167E-05 1.54060E-04-4.60410E-05 9.57810E-06-5.08343E-07 5.80941E-07
 -1       953-4.69140E-05 1.57302E-04-4.73795E-05 6.28089E-06-6.45596E-08 3.73072E-07
 -1       954-4.23216E-05 1.41200E-04-4.24997E-05 6.84397E-06-1.08487E-06 3.80798E-07
 -1       955-4.36437E-05 1.45633E-04-4.36958E-05 9.43966E-06-8.27374E-07 6.21253E-07
 -1       956-4.55887E-05 1.51563E-04-4.55326E-05 1.07011E-05-7.37252E-07 7.38039E-07
 -1       957-4.69383E-05 1.57342E-04-4.72633E-05 9.21683E-06-1.98042E-07 5.57461E-07
 -1       958-4.96401E-05 1.65240E-04-4.96659E-05 5.48610E-06-2.22638E-07-4.64070E-08
 -1       959-4.16527E-05 1.38545E-04-4.14441E-05 6.51969E-06-8.82435E-07 4.74589E-07
 -1       960-4.36830E-05 1.46260E-04-4.39200E-05 9.75783E-06-1.13617E-06 7.47415E-07
 -1       961-4.62734E-05 1.53440E-04-4.57187E-05 1.04482E-05-3.57991E-07 9.06219E-07
 -1       962-4.75706E-05 1.58955E-04-4.75052E-05 9.54208E-06-2.04380E-07 6.86175E-07
 -1       963-5.01533E-05 1.66884E-04-5.01255E-05 6.43172E-06-1.69023E-08 6.24136E-07
 -1       964-4.12222E-05 1.36826E-04-4.05240E-05 5.49695E-06-8.98746E-07 3.27411E-07
 -1       965-4.31977E-05 1.44811E-04-4.35537E-05 9.59338E-06-1.33442E-06 8.50381E-07
 -1       966-4.60236E-05 1.53692E-04-4.62017E-05 9.47724E-06-8.49304E-07 7.45913E-07
 -1       967-4.91812E-05 1.63074E-04-4.85788E-05 9.38249E-06-3.49686E-07 7.02373E-07
 -1       968-5.22036E-05 1.73249E-04-5.18689E-05 5.13455E-06-5.73905E-07 2.87927E-07
 -1       969-4.05200E-05 1.35448E-04-4.09445E-05 5.34546E-06-1.08089E-06 1.36793E-06
 -1       970-4.32583E-05 1.45181E-04-4.39387E-05 1.03935E-05-1.17750E-06 2.62857E-06
 -1       971-4.64312E-05 1.54928E-04-4.64124E-05 8.57834E-06-7.70040E-07 1.58281E-06
 -1       972-4.95514E-05 1.64990E-04-4.92157E-05 1.01651E-05-3.86405E-07 2.17393E-06
 -1       973-5.24827E-05 1.76198E-04-5.34754E-05 5.79248E-06 1.71425E-08 9.68028E-07
 -1       974-3.88729E-05 1.31412E-04-3.94194E-05 5.52432E-06-9.16177E-07 9.88254E-07
 -1       975-4.30540E-05 1.43667E-04-4.33503E-05 9.74517E-06-1.22594E-06 2.11898E-06
 -1       976-4.80047E-05 1.55538E-04-4.53445E-05 9.36782E-06-3.54473E-07 2.35293E-06
 -1       977-5.00745E-05 1.66384E-04-4.93138E-05 9.46826E-06 5.25418E-07 2.02470E-06
 -1       978-5.31321E-05 1.78158E-04-5.41252E-05 5.79767E-06 1.83238E-07 1.09203E-06
 -1       979-3.66360E-05 1.24192E-04-3.78942E-05 5.15908E-06-4.00440E-07 5.40428E-07
 -1       980-4.28379E-05 1.42249E-04-4.30156E-05 9.05595E-06-8.91150E-07 2.29846E-06
 -1       981-4.77283E-05 1.56522E-04-4.66289E-05 9.05739E-06-2.45941E-07 2.37125E-06
 -1       982-5.09696E-05 1.69372E-04-5.06451E-05 8.17056E-06 1.39596E-06 2.07981E-06
 -1       983-5.59433E-05 1.87556E-04-5.65526E-05 5.14240E-06 9.84381E-08 4.21329E-07
 -1       984-3.80927E-05 1.26042E-04-3.77537E-05 6.89495E-06 6.97062E-07 1.47481E-06
 -1       985-4.28565E-05 1.41861E-04-4.27505E-05 9.86083E-06-3.87780E-07 2.00247E-06
 -1       986-4.79783E-05 1.56355E-04-4.64469E-05 9.14818E-06-4.87386E-08 2.01396E-06
 -1       987-5.18309E-05 1.70020E-04-5.06429E-05 8.36781E-06 1.43469E-06 1.55934E-06
 -1       988-5.48901E-05 1.83697E-04-5.57630E-05 6.35399E-06 1.06140E-06 1.25463E-06
 -1       989-3.70489E-05 1.20570E-04-3.57030E-05 6.03500E-06 7.88040E-07 2.03575E-06
 -1       990-4.27054E-05 1.40468E-04-4.21498E-05 9.25385E-06-8.10168E-08 2.10065E-06
 -1       991-4.85090E-05 1.57332E-04-4.66026E-05 6.95383E-06 5.24725E-07 2.24245E-06
 -1       992-5.36137E-05 1.73386E-04-5.08776E-05 7.10364E-06 2.08593E-06 1.92127E-06
 -1       993-5.63537E-05 1.88853E-04-5.68054E-05 3.02917E-06 2.30525E-06 1.09862E-06
 -1       994-3.87127E-05 1.24122E-04-3.68411E-05 5.41076E-06 1.62993E-07 4.18579E-06
 -1       995-4.24453E-05 1.39613E-04-4.15918E-05 9.31207E-06-4.37176E-07 4.78438E-06
 -1       996-4.86423E-05 1.57371E-04-4.61272E-05 4.61825E-06 9.58551E-08 3.63941E-06
 -1       997-5.34013E-05 1.73739E-04-5.06452E-05 6.67056E-06 1.59151E-06 3.66294E-06
 -1       998-5.96634E-05 1.94461E-04-5.73003E-05 3.16226E-06 5.37186E-07 5.24295E-07
 -1       999-3.76515E-05 1.19634E-04-3.43395E-05 4.27304E-06-1.27536E-06 3.36531E-06
 -1      1000-4.11235E-05 1.38836E-04-4.02767E-05 7.21698E-06-2.29046E-06 5.51843E-06
 -1      1001-4.77739E-05 1.57446E-04-4.55568E-05 5.56590E-06-1.38480E-06 4.84468E-06
 -1      1002-5.18001E-05 1.74643E-04-5.01634E-05 5.33826E-06-4.39404E-07 3.77561E-06
 -1      1003-5.59482E-05 1.90691E-04-5.71891E-05 3.42147E-06-4.58668E-07 1.97740E-06
 -1      1004-3.13124E-05 1.08493E-04-3.01038E-05-5.36964E-07-6.36919E-06 7.10716E-07
 -1      1005-3.42153E-05 1.40147E-04-3.94780E-05 6.39208E-07-1.09469E-05 4.44674E-06
 -1      1006-4.37940E-05 1.58486E-04-4.68386E-05 2.60723E-06-4.71886E-06 4.96480E-06
 -1      1007-4.80335E-05 1.76942E-04-5.00153E-05 5.18478E-06-6.24893E-06 4.20665E-06
 -1      1008-5.33552E-05 1.99238E-04-5.99203E-05 4.99475E-06-8.42263E-06 1.85507E-06
 -1      1009-2.13216E-05 1.13790E-04-2.17953E-05-1.26119E-05-2.20800E-05-1.50992E-06
 -1      1010-1.92285E-05 1.30499E-04-2.63314E-05-7.49916E-06-2.61804E-05 2.35817E-06
 -1      1011-2.37804E-05 1.53022E-04-3.66498E-05 3.00047E-06-2.62632E-05 1.19230E-06
 -1      1012-3.71937E-05 1.82148E-04-4.56233E-05 8.55768E-06-2.40884E-05 3.51309E-06
 -1      1013-4.34717E-05 2.01675E-04-4.68960E-05 1.50032E-05-2.94906E-05 3.99980E-06
 -1      1014 4.54361E-06 9.18142E-05-4.92048E-05-2.28257E-05 7.73569E-05 1.87932E-05
 -1      1015 1.56527E-04-3.60062E-04-5.30671E-05 2.77167E-04 3.40981E-04-3.24727E-05
 -1      1016 1.38745E-04-9.41509E-04 1.68841E-04 5.00688E-04-9.51738E-05-5.96002E-05
 -1      1017 1.80305E-05-7.40224E-05-3.94788E-05 5.65607E-05-2.34747E-04 1.54187E-05
 -1      1018-2.94135E-05 1.35079E-04-7.31114E-05-1.93911E-05-1.06040E-04-9.04565E-07
 -1      1019-5.08486E-05 1.89342E-04-7.94667E-05-1.99693E-05-5.01790E-05-1.46173E-06
 -1      1020-9.15766E-05 2.56097E-04-6.76946E-05-4.22679E-05-3.91913E-05-1.03919E-05
 -1      1021-5.00572E-06 3.34455E-05-2.53801E-05-4.59512E-06 8.65212E-05-1.16406E-05
 -1      1022 1.36155E-05-1.67646E-04 6.87726E-05 6.74703E-05 1.63291E-04-3.27629E-05
 -1      1023 3.79801E-05-3.71617E-04 1.08818E-04 1.49459E-04-1.18289E-04 5.28249E-05
 -1      1024 2.90865E-05-6.72257E-05-3.23839E-05 2.72661E-05-2.05352E-04 1.82576E-05
 -1      1025-1.90584E-06 5.00979E-05-3.88597E-05 5.14592E-07-1.20868E-04 1.42527E-05
 -1      1026-3.63621E-05 1.49173E-04-5.52361E-05-1.63498E-05-5.99656E-05 3.61609E-06
 -1      1027-5.20690E-05 2.03287E-04-6.72947E-05-2.47117E-05-4.63978E-05 2.53431E-06
 -1      1028-2.29257E-05 4.07790E-05 2.18310E-06 1.35421E-05 5.39983E-05-5.71314E-06
 -1      1029 6.04765E-06-7.74434E-05 5.51608E-05 4.49228E-05 8.48956E-05-6.77087E-06
 -1      1030 3.21628E-06-1.15109E-04 6.51159E-05 6.09220E-05-1.90288E-05 1.65182E-05
 -1      1031 1.50396E-05-9.24566E-05 3.02499E-05 2.97347E-05-1.25202E-04 2.42424E-05
 -1      1032-9.13077E-06 2.90401E-05-9.31617E-06 4.80822E-06-8.41931E-05 1.54611E-05
 -1      1033-2.78476E-05 9.49111E-05-3.21876E-05-7.24103E-06-6.70257E-05 2.60445E-06
 -1      1034-4.51722E-05 1.62572E-04-5.39195E-05-1.07719E-05-3.62026E-05 1.99163E-06
 -1      1035-8.80994E-06 1.03000E-05 3.83263E-06 1.85123E-05 4.09073E-05-3.05848E-06
 -1      1036 8.33552E-06-7.53128E-05 4.98942E-05 2.90008E-05 4.16941E-05 1.65934E-06
 -1      1037 1.03534E-05-9.33033E-05 4.72955E-05 3.94870E-05-1.15070E-05 6.71428E-06
 -1      1038 4.57011E-06-4.38460E-05 3.14749E-05 1.88993E-05-6.23367E-05 1.12890E-05
 -1      1039-4.34417E-06 2.66591E-05-3.37213E-06 2.02054E-06-6.47011E-05 5.27372E-06
 -1      1040-2.32472E-05 8.18626E-05-2.24681E-05-4.46016E-06-4.94517E-05 4.52767E-06
 -1      1041-3.38232E-05 1.08421E-04-3.12045E-05-2.20363E-06-3.86662E-05 5.46415E-07
 -1      1042-1.15860E-05 2.34612E-05-2.57306E-06 8.57505E-06 1.83737E-05-3.42772E-06
 -1      1043-1.20345E-05 1.63523E-05 8.20215E-06 1.18550E-05 2.85493E-05-4.51028E-06
 -1      1044-1.05749E-05-6.75478E-06 2.47442E-05 1.64940E-05-7.63896E-07 1.94505E-06
 -1      1045-8.98026E-06-1.01334E-05 2.96940E-05 1.21347E-05-3.26730E-05 4.96527E-06
 -1      1046-1.75192E-05 3.80437E-05-2.65010E-08 4.40583E-06-4.02621E-05 6.89460E-06
 -1      1047-2.97652E-05 8.58683E-05-2.41534E-05-2.03397E-06-3.63239E-05 4.98921E-06
 -1      1048-3.95667E-05 1.20690E-04-3.64986E-05-1.47759E-06-2.33849E-05 6.08895E-07
 -1      1049-1.35123E-05 2.55740E-05-3.29307E-06 5.98768E-06 9.68316E-06-6.33908E-07
 -1      1050-1.32790E-05 2.46591E-05-1.66956E-06 7.12682E-06 1.20292E-05-1.36174E-06
 -1      1051-1.55908E-05 1.90563E-05 6.64011E-06 1.08588E-05-3.26681E-06 1.21936E-07
 -1      1052-1.79992E-05 2.72179E-05 9.99340E-06 5.02880E-06-1.66811E-05 3.22376E-06
 -1      1053-2.14679E-05 5.64162E-05-8.46792E-06 2.01359E-06-2.32101E-05 2.85589E-06
 -1      1054-2.83940E-05 8.30647E-05-2.33981E-05-1.37875E-07-2.23173E-05 2.85030E-06
 -1      1055-3.00999E-05 9.43008E-05-2.98028E-05 5.92532E-08-1.86953E-05 8.41052E-07
 -1      1056-8.01625E-06 2.22018E-05-5.80566E-06 8.24104E-07 9.35359E-06 1.91079E-06
 -1      1057-6.66640E-06 2.38767E-05-4.37779E-06 3.98908E-06 4.14033E-06-6.29576E-07
 -1      1058-8.07013E-06 2.34455E-05-1.93057E-06 4.91542E-06-5.79101E-06 1.23633E-06
 -1      1059-1.21795E-05 3.31739E-05-1.77581E-06 4.24273E-06-1.08932E-05 1.06978E-06
 -1      1060-1.25391E-05 4.83304E-05-1.23705E-05 2.21674E-06-1.69546E-05 1.02220E-06
 -1      1061-2.20714E-05 7.33972E-05-2.04025E-05 7.10090E-07-1.48972E-05-1.83619E-07
 -1      1062-2.56130E-05 8.58090E-05-2.66964E-05-3.07033E-07-1.25687E-05 3.59679E-07
 -1      1063-1.23473E-05 4.02965E-05-1.17208E-05 4.55248E-06 3.47542E-06 3.99045E-07
 -1      1064-1.29380E-05 3.46672E-05-7.77096E-06 3.86348E-06 1.85113E-06 1.63482E-07
 -1      1065-1.64181E-05 4.72231E-05-1.01205E-05 3.67269E-06-3.94481E-06 9.28674E-07
 -1      1066-1.84148E-05 5.07478E-05-1.11734E-05 3.26076E-06-6.46648E-06 1.84625E-06
 -1      1067-1.95453E-05 6.57630E-05-1.68530E-05 3.48206E-06-1.03697E-05 1.89217E-06
 -1      1068-2.13648E-05 6.96053E-05-1.91367E-05 1.93013E-06-1.04308E-05-6.93281E-07
 -1      1069-2.68853E-05 8.93830E-05-2.76716E-05 4.00305E-06-7.75449E-06 1.97685E-07
 -1      1070-9.23058E-06 3.60416E-05-1.30069E-05 5.31052E-06-1.20288E-06-5.68138E-07
 -1      1071-9.80550E-06 3.77649E-05-1.15936E-05 5.62443E-06-2.48075E-07-1.06577E-06
 -1      1072-1.78427E-05 5.41979E-05-1.53422E-05 4.10511E-06-3.27086E-06 1.74736E-06
 -1      1073-1.49410E-05 4.94309E-05-1.40972E-05 6.94040E-06-4.96443E-06 1.61994E-06
 -1      1074-1.57090E-05 5.52262E-05-1.55630E-05 4.59615E-06-9.00832E-06-5.00374E-07
 -1      1075-2.51395E-05 8.31620E-05-2.51254E-05 3.02929E-06-7.29399E-06 1.81485E-06
 -1      1076-2.26162E-05 7.73421E-05-2.48160E-05 6.77484E-06-1.71554E-06 7.65398E-07
 -1      1077-1.28172E-05 4.62917E-05-1.63865E-05 4.85635E-06-6.49503E-07-3.41821E-07
 -1      1078-1.60925E-05 5.32998E-05-1.75552E-05 5.39262E-06-1.09830E-06-9.44733E-08
 -1      1079-1.90332E-05 5.85508E-05-1.80467E-05 1.66746E-06-5.02147E-07-5.31150E-07
 -1      1080-2.13150E-05 6.08313E-05-1.49560E-05 3.41029E-06-6.89609E-06-3.95479E-07
 -1      1081-2.41434E-05 7.71493E-05-2.26422E-05 4.59804E-06-6.34908E-06 2.07389E-07
 -1      1082-2.74050E-05 8.33585E-05-2.55165E-05 4.17793E-06-4.27363E-06-1.07739E-07
 -1      1083-2.78403E-05 8.59469E-05-2.58370E-05 5.36330E-06-4.85659E-06 1.27725E-06
 -1      1084-1.69384E-05 5.06226E-05-1.62700E-05 2.15593E-06 1.14439E-06-4.81793E-07
 -1      1085-1.80831E-05 5.77785E-05-1.97489E-05 4.01878E-06-1.22682E-06-3.38304E-07
 -1      1086-2.02268E-05 6.38729E-05-1.92937E-05 5.17389E-06-4.36133E-06-1.71454E-06
 -1      1087-2.27516E-05 7.22548E-05-2.13610E-05 4.34968E-06-4.22871E-06-5.28693E-07
 -1      1088-2.41790E-05 7.71798E-05-2.57056E-05 5.86381E-06-4.13556E-06 5.34525E-07
 -1      1089-2.55690E-05 7.64903E-05-2.27277E-05 2.72756E-06-5.31515E-06-3.31862E-06
 -1      1090-2.71518E-05 8.71838E-05-2.75466E-05 4.16910E-06-3.86792E-06 3.72291E-07
 -1      1091-1.54388E-05 5.19658E-05-1.89106E-05 5.38374E-07 2.63056E-06 1.66538E-06
 -1      1092-1.56658E-05 5.87891E-05-2.04900E-05 2.74222E-06-2.97550E-06-3.19043E-07
 -1      1093-1.57509E-05 6.11499E-05-2.13473E-05 2.54818E-06-4.01967E-06-4.66378E-07
 -1      1094-1.81374E-05 6.65199E-05-2.23876E-05 2.31432E-06-3.71711E-06-4.52116E-07
 -1      1095-1.81675E-05 7.04079E-05-2.49426E-05 1.80961E-06-3.96785E-06-9.79923E-07
 -1      1096-2.40619E-05 8.45595E-05-2.70206E-05 3.53270E-06-5.38049E-06-9.52485E-07
 -1      1097-2.48810E-05 8.60448E-05-2.84336E-05 1.05571E-06-6.24333E-06-1.24269E-06
 -1      1098-1.88353E-05 6.81556E-05-2.17661E-05 2.41207E-06 3.62290E-07 9.72992E-07
 -1      1099-2.01813E-05 6.70925E-05-1.99861E-05 3.89641E-06-3.49310E-06 8.70057E-07
 -1      1100-2.18017E-05 7.77069E-05-2.48661E-05 4.22236E-06-4.00049E-06-2.12465E-07
 -1      1101-2.31413E-05 7.69633E-05-2.33540E-05 2.92908E-06-3.95267E-06-6.72352E-07
 -1      1102-2.47302E-05 8.65455E-05-2.76492E-05 4.72158E-06-4.26631E-06-5.94074E-07
 -1      1103-2.66500E-05 8.69644E-05-2.75556E-05 3.89467E-06-4.13366E-06-9.65197E-07
 -1      1104-2.88405E-05 9.77181E-05-2.97740E-05 3.51274E-06-2.87495E-06-6.24357E-07
 -1      1105-1.72116E-05 6.12648E-05-1.90792E-05 5.06636E-06 1.01276E-06-7.20405E-07
 -1      1106-1.62535E-05 6.46359E-05-2.22109E-05 5.66111E-06-6.25848E-07-6.06361E-07
 -1      1107-1.80474E-05 7.00814E-05-2.41648E-05 5.62371E-06-3.84687E-06-3.83306E-07
 -1      1108-2.15972E-05 7.60088E-05-2.40003E-05 5.61939E-06-3.63759E-06-6.55173E-07
 -1      1109-2.13964E-05 7.96075E-05-2.68969E-05 6.15991E-06-3.93806E-06-7.49443E-07
 -1      1110-2.43107E-05 8.81252E-05-2.85733E-05 5.49059E-06-3.76975E-06 4.19773E-08
 -1      1111-2.50292E-05 8.95897E-05-2.95819E-05 5.45400E-06-3.30125E-06 4.62577E-07
 -1      1112-2.31125E-05 7.66527E-05-2.32219E-05 3.47186E-06 1.77412E-07 2.17359E-07
 -1      1113-2.32293E-05 7.87437E-05-2.48115E-05 3.81418E-06-8.38219E-07-5.82317E-07
 -1      1114-2.51869E-05 8.57456E-05-2.64918E-05 5.07690E-06-2.82448E-06-4.70795E-07
 -1      1115-2.78067E-05 8.69224E-05-2.57597E-05 3.78883E-06-3.72137E-06-5.93657E-07
 -1      1116-2.83704E-05 9.58012E-05-2.98371E-05 3.44842E-06-3.66301E-06-4.25456E-07
 -1      1117-2.93217E-05 9.75051E-05-3.11251E-05 4.87670E-06-4.64577E-06 4.35190E-07
 -1      1118-3.19267E-05 1.03668E-04-3.16069E-05 4.08668E-06-2.45139E-06 2.95625E-07
 -1      1119-2.49678E-05 8.16456E-05-2.51255E-05 3.56507E-06-9.39218E-07 3.17559E-07
 -1      1120-2.55267E-05 8.35666E-05-2.65978E-05 3.71797E-06-1.37624E-06-5.46732E-07
 -1      1121-2.75335E-05 8.80625E-05-2.73673E-05 5.25415E-06-3.88101E-06-8.99266E-07
 -1      1122-2.91693E-05 9.28028E-05-2.74030E-05 3.43480E-06-3.16227E-06-3.56491E-07
 -1      1123-3.03818E-05 9.95462E-05-3.10809E-05 4.76471E-06-3.39416E-06-4.53416E-07
 -1      1124-3.10418E-05 1.03065E-04-3.23879E-05 4.66998E-06-4.13264E-06-8.75885E-07
 -1      1125-3.24488E-05 1.06360E-04-3.35399E-05 3.86710E-06-3.08399E-06-7.73389E-08
 -1      1126-2.16054E-05 7.77829E-05-2.54458E-05 3.16125E-06-7.26966E-07-6.15617E-07
 -1      1127-2.35942E-05 8.56332E-05-2.76261E-05 3.24662E-06-1.02746E-06-5.96905E-07
 -1      1128-2.35452E-05 8.54184E-05-2.81486E-05 2.62319E-06-3.11303E-06-3.80144E-07
 -1      1129-2.54504E-05 8.88849E-05-2.82665E-05 2.60160E-06-2.97435E-06-3.11844E-07
 -1      1130-2.58192E-05 9.26552E-05-3.05971E-05 2.67032E-06-3.57136E-06-7.29085E-07
 -1      1131-2.63661E-05 9.41378E-05-3.07365E-05 3.14621E-06-3.71578E-06-2.64138E-06
 -1      1132-3.15909E-05 1.08081E-04-3.47682E-05 3.31198E-06-2.46889E-06-4.27675E-07
 -1      1133-2.69168E-05 9.15905E-05-2.80320E-05 3.73137E-06-1.26113E-06-3.37574E-08
 -1      1134-2.80526E-05 9.18660E-05-2.84114E-05 3.92586E-06-1.31745E-06-1.33757E-07
 -1      1135-2.91585E-05 9.85499E-05-3.06424E-05 3.54798E-06-2.82921E-06-2.72121E-07
 -1      1136-2.99262E-05 9.89743E-05-3.03301E-05 2.30687E-06-3.21083E-06-2.72120E-07
 -1      1137-3.15439E-05 1.07910E-04-3.33894E-05 2.95858E-06-4.22941E-06-1.12129E-07
 -1      1138-3.18891E-05 1.08594E-04-3.30165E-05 2.87377E-06-3.14842E-06-9.24988E-07
 -1      1139-3.40131E-05 1.13634E-04-3.49383E-05 4.17174E-06-3.00475E-06-3.56019E-07
 -1      1140-2.85362E-05 9.27868E-05-2.84505E-05 4.22925E-06-2.13225E-06 3.62827E-08
 -1      1141-2.74742E-05 9.58130E-05-3.05730E-05 4.28019E-06-9.14157E-07-2.23904E-07
 -1      1142-2.99507E-05 1.00741E-04-3.19280E-05 4.20644E-06-3.03217E-06 3.26981E-08
 -1      1143-3.14546E-05 1.05051E-04-3.25256E-05 3.56911E-06-2.51378E-06 6.92729E-08
 -1      1144-3.09026E-05 1.05251E-04-3.34971E-05 3.92869E-06-5.05402E-06-6.50270E-07
 -1      1145-3.05369E-05 1.06744E-04-3.34926E-05 5.08933E-06-3.95176E-06 1.62106E-07
 -1      1146-3.13924E-05 1.07948E-04-3.37176E-05 5.52307E-06-2.65517E-06-3.22300E-07
 -1      1147-3.03134E-05 1.00126E-04-3.06281E-05 4.57337E-06-9.05042E-07 8.27581E-09
 -1      1148-3.10351E-05 1.04159E-04-3.23236E-05 4.37606E-06-1.02033E-06 2.40667E-07
 -1      1149-3.25207E-05 1.09274E-04-3.37925E-05 4.18884E-06-2.72586E-06 1.43213E-07
 -1      1150-3.37571E-05 1.11449E-04-3.31953E-05 3.49290E-06-3.09992E-06-2.75443E-07
 -1      1151-3.37504E-05 1.13161E-04-3.43091E-05 3.17471E-06-4.57456E-06 1.97034E-07
 -1      1152-3.47807E-05 1.17217E-04-3.62463E-05 3.64028E-06-4.03828E-06-1.60388E-07
 -1      1153-3.60389E-05 1.19257E-04-3.55219E-05 4.55689E-06-2.43135E-06-1.45557E-07
 -1      1154-3.24114E-05 1.07881E-04-3.29858E-05 4.64477E-06-1.23998E-06 3.81784E-07
 -1      1155-3.29108E-05 1.09346E-04-3.39412E-05 4.66241E-06-8.95296E-07 4.99858E-07
 -1      1156-3.44368E-05 1.14102E-04-3.52349E-05 4.28266E-06-3.03452E-06-1.21415E-07
 -1      1157-3.48403E-05 1.12777E-04-3.40086E-05 3.81502E-06-3.85876E-06-2.41062E-07
 -1      1158-3.56346E-05 1.18124E-04-3.60313E-05 4.38687E-06-3.78560E-06-3.35511E-07
 -1      1159-3.65979E-05 1.20038E-04-3.69354E-05 3.98829E-06-4.01749E-06-6.20027E-07
 -1      1160-3.74781E-05 1.22629E-04-3.74218E-05 3.88071E-06-2.54900E-06-1.97843E-07
 -1      1161-3.28455E-05 1.08575E-04-3.37785E-05 4.07471E-06-1.03243E-06 7.87922E-07
 -1      1162-3.24374E-05 1.11392E-04-3.52259E-05 3.92980E-06-5.47219E-07-1.17315E-07
 -1      1163-3.22196E-05 1.11777E-04-3.52999E-05 4.03088E-06-2.58594E-06-1.40030E-07
 -1      1164-3.33457E-05 1.13258E-04-3.48176E-05 3.18171E-06-4.03378E-06-1.76390E-07
 -1      1165-3.36299E-05 1.16068E-04-3.62709E-05 3.45405E-06-3.98407E-06-5.71593E-07
 -1      1166-3.54722E-05 1.20336E-04-3.76488E-05 2.99329E-06-3.58357E-06-9.62341E-08
 -1      1167-3.72834E-05 1.24004E-04-3.80905E-05 3.08622E-06-2.43778E-06-6.48041E-07
 -1      1168-3.48127E-05 1.15485E-04-3.46891E-05 4.20080E-06-4.35848E-07-1.10142E-07
 -1      1169-3.56995E-05 1.19719E-04-3.65981E-05 3.77077E-06-1.00313E-06 1.26818E-07
 -1      1170-3.63840E-05 1.21987E-04-3.72400E-05 3.87661E-06-2.97025E-06-3.84352E-08
 -1      1171-3.69091E-05 1.21943E-04-3.66996E-05 3.02368E-06-3.74828E-06-1.09844E-07
 -1      1172-3.76327E-05 1.25729E-04-3.82856E-05 3.88072E-06-4.19267E-06-6.84620E-08
 -1      1173-3.84043E-05 1.27505E-04-3.86929E-05 2.94140E-06-3.53524E-06-1.19441E-07
 -1      1174-3.90025E-05 1.29027E-04-3.86021E-05 3.73428E-06-2.59108E-06-1.44714E-07
 -1      1175-3.73231E-05 1.23939E-04-3.74929E-05 4.02846E-06-6.41254E-07 1.22270E-07
 -1      1176-3.75633E-05 1.24928E-04-3.80431E-05 4.33474E-06-1.26966E-06 2.65074E-07
 -1      1177-3.84689E-05 1.27698E-04-3.88645E-05 4.15953E-06-3.22482E-06-7.58416E-08
 -1      1178-3.90354E-05 1.27613E-04-3.81083E-05 2.96905E-06-3.86810E-06-1.32773E-07
 -1      1179-3.91532E-05 1.30568E-04-3.99121E-05 4.13356E-06-3.68669E-06-1.38306E-07
 -1      1180-3.95876E-05 1.31334E-04-3.98345E-05 4.14089E-06-3.97160E-06-4.58293E-07
 -1      1181-4.01239E-05 1.33713E-04-4.03386E-05 3.93079E-06-2.37153E-06-2.74704E-07
 -1      1182-3.72871E-05 1.26521E-04-3.90446E-05 3.12778E-06 5.18988E-07-1.78864E-07
 -1      1183-3.82329E-05 1.28468E-04-3.89671E-05 4.11321E-06-9.87602E-07-3.47663E-07
 -1      1184-3.86546E-05 1.29603E-04-3.95033E-05 3.97417E-06-2.96298E-06-8.56260E-08
 -1      1185-3.88394E-05 1.29942E-04-3.91780E-05 2.55236E-06-3.71565E-06-7.39439E-08
 -1      1186-3.94383E-05 1.32625E-04-4.04915E-05 4.09087E-06-3.52266E-06-1.65439E-07
 -1      1187-3.99669E-05 1.34813E-04-4.07578E-05 4.46109E-06-3.80833E-06 8.18562E-08
 -1      1188-3.96804E-05 1.33449E-04-4.09281E-05 3.04556E-06-2.63712E-06-2.05791E-07
 -1      1189-4.03739E-05 1.34561E-04-4.04301E-05 3.72187E-06-1.35781E-07-1.41766E-07
 -1      1190-3.97292E-05 1.33293E-04-4.03838E-05 4.11397E-06-8.76638E-07-7.78694E-08
 -1      1191-4.07499E-05 1.35737E-04-4.09503E-05 4.29684E-06-3.11120E-06 1.21439E-08
 -1      1192-4.08864E-05 1.35618E-04-4.07287E-05 3.26718E-06-3.60269E-06-1.20323E-07
 -1      1193-4.14955E-05 1.37918E-04-4.17169E-05 4.39236E-06-3.71205E-06-1.19664E-07
 -1      1194-4.10969E-05 1.37130E-04-4.16930E-05 4.47762E-06-4.31783E-06-2.79454E-07
 -1      1195-4.16438E-05 1.38875E-04-4.17747E-05 3.97409E-06-2.87168E-06 2.67374E-08
 -1      1196-4.09553E-05 1.37098E-04-4.13232E-05 3.68417E-06-3.85607E-07 1.08546E-07
 -1      1197-4.08565E-05 1.37640E-04-4.19122E-05 3.80253E-06-8.87266E-07 3.02855E-08
 -1      1198-4.12280E-05 1.38465E-04-4.19652E-05 3.85864E-06-2.92844E-06-1.85638E-09
 -1      1199-4.15613E-05 1.39210E-04-4.20470E-05 3.33070E-06-3.51394E-06-1.11925E-07
 -1      1200-4.16843E-05 1.39994E-04-4.25022E-05 3.88393E-06-3.72108E-06-4.82963E-08
 -1      1201-4.24325E-05 1.41197E-04-4.26861E-05 3.75034E-06-4.09492E-06 5.84279E-09
 -1      1202-4.27315E-05 1.42452E-04-4.29565E-05 4.05785E-06-2.61238E-06-9.05088E-08
 -1      1203-4.27012E-05 1.43387E-04-4.29513E-05 3.93035E-06-4.03017E-07-3.14499E-08
 -1      1204-4.27285E-05 1.43517E-04-4.31204E-05 4.03089E-06-1.24784E-06 1.05692E-08
 -1      1205-4.29896E-05 1.44266E-04-4.34130E-05 4.19305E-06-2.95265E-06 6.10731E-09
 -1      1206-4.31631E-05 1.44450E-04-4.34614E-05 3.34587E-06-3.49093E-06 5.80505E-08
 -1      1207-4.33542E-05 1.44766E-04-4.34586E-05 4.28780E-06-3.79689E-06 8.79758E-08
 -1      1208-4.37864E-05 1.45707E-04-4.35669E-05 3.97113E-06-3.82309E-06 2.22066E-07
 -1      1209-4.34968E-05 1.46119E-04-4.40536E-05 4.31204E-06-2.75248E-06 1.43297E-07
 -1      1210-4.52412E-05 1.50855E-04-4.54186E-05 4.60040E-06-7.63893E-07 4.92401E-08
 -1      1211-4.47846E-05 1.48576E-04-4.45031E-05 4.16297E-06-1.15420E-06 2.23960E-07
 -1      1212-4.50681E-05 1.49644E-04-4.50098E-05 4.17730E-06-2.96541E-06 8.63624E-08
 -1      1213-4.50007E-05 1.49538E-04-4.49125E-05 3.36474E-06-3.59259E-06 6.85522E-08
 -1      1214-4.50327E-05 1.49484E-04-4.49051E-05 4.24838E-06-3.79950E-06 2.42911E-08
 -1      1215-4.48111E-05 1.48505E-04-4.45096E-05 4.44369E-06-3.81553E-06-2.13762E-07
 -1      1216-4.50319E-05 1.49873E-04-4.49827E-05 4.82590E-06-2.50722E-06-1.01191E-08
 -1      1217-4.65020E-05 1.53812E-04-4.62688E-05 4.21803E-06-1.76819E-07 2.07858E-07
 -1      1218-4.66383E-05 1.54921E-04-4.64141E-05 4.19176E-06-1.30713E-06 6.54736E-08
 -1      1219-4.64465E-05 1.54269E-04-4.61522E-05 3.53442E-06-3.31510E-06-1.26971E-09
 -1      1220-4.61359E-05 1.53376E-04-4.58456E-05 3.30390E-06-3.55826E-06 8.12447E-09
 -1      1221-4.61114E-05 1.53747E-04-4.60776E-05 3.98687E-06-3.98847E-06 2.00404E-07
 -1      1222-4.59273E-05 1.52012E-04-4.54290E-05 3.90743E-06-3.98511E-06-9.35786E-08
 -1      1223-4.54778E-05 1.52026E-04-4.60997E-05 4.27994E-06-2.91787E-06-1.98842E-07
 -1      1224-4.79475E-05 1.59125E-04-4.74395E-05 3.76819E-06-1.97642E-07-1.09193E-07
 -1      1225-4.82910E-05 1.60869E-04-4.82547E-05 3.51900E-06-1.35139E-06-1.25829E-07
 -1      1226-4.75308E-05 1.57959E-04-4.71326E-05 3.62827E-06-2.93960E-06 3.22523E-08
 -1      1227-4.76476E-05 1.58480E-04-4.74994E-05 2.97762E-06-3.64862E-06 5.83756E-08
 -1      1228-4.71542E-05 1.56487E-04-4.67514E-05 3.65366E-06-3.88403E-06 1.15913E-11
 -1      1229-4.67944E-05 1.56302E-04-4.70031E-05 3.42387E-06-3.85207E-06 7.93496E-08
 -1      1230-4.67426E-05 1.55322E-04-4.64035E-05 4.00972E-06-2.73988E-06 1.46563E-08
 -1      1231-5.00887E-05 1.65675E-04-4.89383E-05 3.51633E-06 1.80178E-07-4.33342E-07
 -1      1232-5.00018E-05 1.65578E-04-4.93301E-05 3.63565E-06-1.11795E-06 6.07941E-08
 -1      1233-5.02965E-05 1.65033E-04-4.85983E-05 3.51532E-06-2.80317E-06 1.02330E-07
 -1      1234-4.98529E-05 1.65623E-04-4.95782E-05 2.78488E-06-3.64629E-06 1.58976E-07
 -1      1235-4.95712E-05 1.63030E-04-4.81349E-05 3.49995E-06-4.06315E-06 1.32075E-07
 -1      1236-4.80664E-05 1.61012E-04-4.79405E-05 3.48087E-06-4.08828E-06-3.15662E-08
 -1      1237-4.85102E-05 1.59912E-04-4.71312E-05 3.87053E-06-2.95318E-06-2.04337E-08
 -1      1238-5.04558E-05 1.69347E-04-5.03879E-05 3.45502E-06-1.36414E-07-9.50419E-08
 -1      1239-4.98986E-05 1.67988E-04-5.00737E-05 4.12792E-06-1.05122E-06 9.58019E-08
 -1      1240-4.96666E-05 1.66786E-04-4.97773E-05 4.11013E-06-2.54220E-06 2.18722E-07
 -1      1241-4.96118E-05 1.68047E-04-5.09520E-05 3.50984E-06-3.45142E-06 4.06332E-07
 -1      1242-4.89954E-05 1.64577E-04-4.90864E-05 4.20572E-06-3.78123E-06 2.64364E-07
 -1      1243-4.87557E-05 1.64239E-04-4.91065E-05 4.39642E-06-4.50023E-06 5.43391E-07
 -1      1244-4.81938E-05 1.62503E-04-4.84807E-05 4.62908E-06-2.59459E-06 3.32160E-08
 -1      1245-5.25879E-05 1.75315E-04-5.19509E-05 3.46462E-06-2.87164E-07 4.25930E-07
 -1      1246-5.23200E-05 1.74423E-04-5.16256E-05 3.86878E-06-6.79865E-07 3.09766E-07
 -1      1247-5.16546E-05 1.73121E-04-5.20010E-05 3.93979E-06-2.08884E-06 3.04507E-07
 -1      1248-5.10661E-05 1.72033E-04-5.20709E-05 3.43409E-06-3.58859E-06 5.27380E-07
 -1      1249-5.10784E-05 1.69576E-04-5.06367E-05 4.42065E-06-4.07063E-06 2.25382E-07
 -1      1250-5.01615E-05 1.66865E-04-5.01578E-05 4.55443E-06-4.31938E-06 1.35634E-07
 -1      1251-4.94523E-05 1.64627E-04-4.96325E-05 5.31749E-06-2.88962E-06 2.86089E-07
 -1      1252-5.43169E-05 1.81168E-04-5.39069E-05 3.98331E-06 2.26028E-07 7.25654E-07
 -1      1253-5.53467E-05 1.81909E-04-5.41479E-05 4.23439E-06-7.54643E-07 2.58562E-07
 -1      1254-5.29243E-05 1.77155E-04-5.29641E-05 3.60406E-06-2.81578E-06-2.73837E-07
 -1      1255-5.37403E-05 1.77016E-04-5.25456E-05 4.37231E-06-2.98858E-06-1.84367E-07
 -1      1256-5.40279E-05 1.76635E-04-5.22842E-05 4.66063E-06-4.45727E-06 1.56143E-07
 -1      1257-5.20794E-05 1.72521E-04-5.11215E-05 4.41939E-06-4.16828E-06 2.27605E-07
 -1      1258-5.28253E-05 1.73722E-04-5.18229E-05 4.74127E-06-3.20329E-06 1.40984E-07
 -1      1259-5.61550E-05 1.85316E-04-5.50727E-05 3.38099E-06 5.66489E-07-3.90400E-08
 -1      1260-5.56087E-05 1.86706E-04-5.56712E-05 3.19712E-06-5.94966E-07 5.79425E-08
 -1      1261-5.48064E-05 1.81891E-04-5.39514E-05 3.61586E-06-2.45211E-06-4.15056E-08
 -1      1262-5.40545E-05 1.81114E-04-5.40724E-05 2.78482E-06-2.83364E-06-3.13599E-07
 -1      1263-5.38336E-05 1.76963E-04-5.25705E-05 3.92789E-06-4.12735E-06 1.42623E-07
 -1      1264-5.29525E-05 1.75559E-04-5.23510E-05 2.90305E-06-4.17904E-06 3.64494E-07
 -1      1265-5.19336E-05 1.69246E-04-5.00999E-05 4.19692E-06-3.98635E-06 6.82543E-07
 -1      1266-5.83497E-05 1.94259E-04-5.72221E-05 1.58746E-06 1.44100E-06-6.83588E-07
 -1      1267-5.89690E-05 1.91090E-04-5.59779E-05 3.42729E-06-3.73898E-07 3.24176E-07
 -1      1268-5.93154E-05 1.93052E-04-5.64371E-05 2.10323E-06-2.48710E-06 7.92180E-08
 -1      1269-5.78463E-05 1.89473E-04-5.57577E-05 2.01709E-06-3.15710E-06 3.57927E-08
 -1      1270-5.78861E-05 1.86564E-04-5.40519E-05 3.10345E-06-4.49675E-06 2.76609E-07
 -1      1271-5.51258E-05 1.81135E-04-5.30916E-05 2.11471E-06-4.81524E-06 7.55821E-08
 -1      1272-5.37959E-05 1.76333E-04-5.10508E-05 2.39283E-06-4.48613E-06 1.00028E-06
 -1      1273-5.68883E-05 1.92832E-04-5.74400E-05 3.04027E-06 7.18727E-07-2.36363E-07
 -1      1274-5.75804E-05 1.93934E-04-5.67770E-05 2.58919E-06 4.28778E-07 1.49296E-07
 -1      1275-5.72430E-05 1.93181E-04-5.72285E-05 3.98155E-06-2.49653E-06 5.45414E-07
 -1      1276-5.61619E-05 1.90512E-04-5.72908E-05 2.69488E-06-3.31944E-06 1.39419E-07
 -1      1277-5.53047E-05 1.84442E-04-5.42332E-05 3.65829E-06-4.17303E-06 4.17536E-07
 -1      1278-5.36826E-05 1.81029E-04-5.26465E-05 3.06779E-06-4.90918E-06-4.74102E-08
 -1      1279-5.26494E-05 1.75989E-04-5.14510E-05 2.29585E-06-3.72629E-06 1.07434E-07
 -1      1280-6.03606E-05 1.99438E-04-5.85262E-05 2.13580E-06 1.12790E-06-3.26334E-07
 -1      1281-5.97722E-05 1.96217E-04-5.68117E-05 2.92714E-06 7.28650E-08-1.26690E-07
 -1      1282-5.94619E-05 1.94412E-04-5.59253E-05 3.11217E-06-2.76457E-06 2.46747E-07
 -1      1283-5.81434E-05 1.94903E-04-5.74868E-05 2.16476E-06-3.38470E-06 7.14366E-07
 -1      1284-5.82588E-05 1.89118E-04-5.37219E-05 3.19952E-06-4.02503E-06 6.16460E-07
 -1      1285-5.55154E-05 1.81462E-04-5.20874E-05 3.09002E-06-4.76227E-06 4.08786E-07
 -1      1286-5.32935E-05 1.78867E-04-5.35313E-05 2.34453E-06-4.07628E-06 3.43123E-07
 -1      1287-6.48274E-05 2.06472E-04-5.90767E-05 2.04908E-06-2.03998E-08-9.30211E-07
 -1      1288-6.53407E-05 2.07037E-04-5.76870E-05 3.11173E-06-1.60746E-06-2.91054E-07
 -1      1289-6.49141E-05 2.05363E-04-5.58400E-05 3.07258E-06-3.06168E-06-1.43739E-07
 -1      1290-6.34626E-05 2.02141E-04-5.48983E-05 2.65300E-06-4.01986E-06 2.97616E-07
 -1      1291-6.36029E-05 1.98080E-04-5.19634E-05 2.58395E-06-3.35075E-06 6.49815E-07
 -1      1292-6.09179E-05 1.92863E-04-5.32951E-05 3.42466E-06-3.41677E-06 1.18156E-06
 -1      1293-5.80455E-05 1.88866E-04-5.42626E-05 2.34647E-06-2.64509E-06 2.21524E-06
 -1      1294-6.15134E-05 2.02514E-04-5.65225E-05 2.89290E-06-3.38312E-06 6.76079E-09
 -1      1295-6.25884E-05 2.03035E-04-5.59711E-05 2.45763E-06-3.80002E-06-8.25848E-07
 -1      1296-6.23488E-05 1.98760E-04-4.93302E-05 3.91746E-06-5.08844E-06-6.06891E-08
 -1      1297-6.24289E-05 1.96905E-04-4.63847E-05 2.68712E-06-3.05164E-06 5.97825E-07
 -1      1298-6.10261E-05 1.90239E-04-4.69101E-05 2.38185E-06-1.20244E-06 8.67781E-07
 -1      1299-5.82648E-05 1.85748E-04-4.85118E-05 2.07183E-06 1.17559E-06 1.55102E-06
 -1      1300-5.48444E-05 1.79240E-04-5.17259E-05 1.02900E-06 5.21198E-07 1.38198E-06
 -1      1301-5.91575E-05 2.09771E-04-5.71240E-05 6.68723E-06-1.13512E-05 2.59598E-06
 -1      1302-6.29263E-05 2.09778E-04-5.09554E-05 7.31983E-06-1.08401E-05 2.71210E-06
 -1      1303-6.41300E-05 1.99800E-04-3.80305E-05 9.89363E-06-9.50101E-06-6.35421E-07
 -1      1304-6.31182E-05 1.96090E-04-3.22501E-05 1.11586E-05-1.30935E-06 2.11731E-06
 -1      1305-6.50502E-05 1.97114E-04-3.88826E-05 6.46363E-06 2.77788E-06 1.32424E-06
 -1      1306-6.05645E-05 1.89178E-04-3.95769E-05 6.44432E-06 9.94762E-06 1.01199E-06
 -1      1307-6.05144E-05 1.88518E-04-4.90561E-05 2.60816E-06 6.53181E-06 1.45192E-06
 -1      1308-3.98073E-05 2.15390E-04-4.57397E-05 3.37732E-05-3.57603E-05-4.42185E-06
 -1      1309-3.77343E-05 1.90926E-04-2.26621E-05 3.42681E-05-2.01077E-05 2.08683E-06
 -1      1310-4.04823E-05 1.83123E-04-1.87492E-05 3.09348E-05-1.10243E-05 6.85085E-07
 -1      1311-4.70559E-05 1.84472E-04-2.21764E-05 2.44584E-05 1.14061E-06 1.12799E-06
 -1      1312-4.22850E-05 1.80219E-04-1.98035E-05 2.77017E-05 8.96821E-06 4.60622E-06
 -1      1313-5.29545E-05 1.86538E-04-2.92497E-05 2.14072E-05 1.36201E-05-1.91366E-06
 -1      1314-4.87034E-05 1.82096E-04-3.30893E-05 1.85876E-05 2.09964E-05-2.85845E-06
 -1      1315-1.73489E-05 1.54175E-04-1.23831E-05 2.75425E-05 3.30133E-05-2.18941E-06
 -1      1316-3.38679E-06 1.30913E-04-1.18850E-05 1.77713E-05 3.31496E-05 1.09417E-06
 -1      1317-1.12413E-05 1.13968E-04-1.63756E-05 2.27987E-06 2.49865E-05-1.20720E-06
 -1      1318-2.04648E-06 9.08874E-05-6.28573E-06-4.34520E-06 2.24300E-05 1.08333E-06
 -1      1319-1.09663E-05 7.56620E-05-9.09700E-06-9.42166E-06 1.19311E-05 5.59821E-06
 -1      1320-1.16589E-05 1.45713E-04-9.17677E-06 3.02973E-05 1.96520E-05-2.73758E-07
 -1      1321-8.93924E-06 1.27425E-04-8.34768E-06 1.90045E-05 1.30612E-05 8.13845E-07
 -1      1322-5.66332E-06 1.10187E-04-4.50559E-06 1.04788E-05 1.40520E-05-7.28457E-07
 -1      1323-5.42954E-06 9.44128E-05-6.00313E-06 2.29056E-06 1.06198E-05 9.58167E-07
 -1      1324-1.07010E-05 7.93351E-05-3.16150E-06-1.04024E-05 1.14492E-05-1.41144E-06
 -1      1325-1.07384E-05 1.51247E-04-2.98829E-06 3.45055E-05 1.32854E-05 5.65667E-06
 -1      1326-2.81746E-06 1.20445E-04-1.69752E-06 1.84925E-05 6.90824E-06 2.20706E-06
 -1      1327-7.49351E-06 1.07843E-04-3.74456E-06 9.54614E-06 7.06420E-06 9.79349E-07
 -1      1328-6.28334E-06 8.92951E-05-1.88430E-06-1.31104E-06 3.13363E-06 4.59770E-07
 -1      1329-7.30687E-06 7.01178E-05-4.11745E-06-1.48149E-05 4.95178E-06 4.66109E-07
 -1      1330-2.15638E-05 1.61945E-04-9.03610E-06 3.44606E-05-9.35814E-07 1.22585E-06
 -1      1331-7.68351E-06 1.31665E-04-7.89809E-06 2.14686E-05-3.59624E-07 1.24453E-06
 -1      1332-1.09721E-05 1.13299E-04-7.98858E-06 8.59214E-06-2.34404E-06-2.25180E-07
 -1      1333-7.83073E-06 9.21332E-05-6.00617E-06-1.73221E-06-2.18992E-06 9.15358E-08
 -1      1334-8.11646E-06 7.51753E-05-3.80239E-06-1.21847E-05-1.25931E-06 9.89490E-07
 -1      1335-2.04002E-05 1.62247E-04-8.51891E-06 3.45858E-05-1.48995E-05 5.74009E-07
 -1      1336-4.31985E-06 1.34335E-04-1.96750E-06 2.30953E-05-1.31278E-05-5.11314E-06
 -1      1337-8.55811E-06 1.16295E-04 0.00000E+00 1.05901E-05-9.45671E-06 2.47174E-07
 -1      1338 0.00000E+00 9.86198E-05 0.00000E+00 4.00260E-06-8.86349E-06 0.00000E+00
 -1      1339-1.28198E-05 8.61522E-05-5.30631E-06-1.08269E-05-7.67323E-06 7.60610E-07
 -1      1340-2.39329E-05 1.69107E-04-6.80639E-06 3.52987E-05-2.48692E-05-2.07769E-07
 -1      1341-5.94754E-06 1.40451E-04-7.89838E-06 2.17602E-05-1.78011E-05 3.62447E-07
 -1      1342-1.27688E-05 1.20321E-04-9.51307E-06 5.80857E-06-1.70607E-05 3.30296E-07
 -1      1343-7.74145E-07 1.04294E-04-5.09016E-06 2.18414E-06-1.65076E-05-2.11974E-06
 -1      1344-1.44931E-05 8.98329E-05-5.63588E-06-1.66438E-05-1.49400E-05 4.99462E-07
 -1      1345-2.09270E-05 1.81919E-04-1.89924E-05 3.20186E-05-3.96070E-05 6.56587E-07
 -1      1346-5.30041E-06 1.45985E-04-1.07696E-05 1.60460E-05-3.53891E-05-1.43288E-06
 -1      1347-1.09659E-05 1.34093E-04-1.82787E-05 1.39311E-06-3.15173E-05-2.18063E-06
 -1      1348-3.16925E-06 1.16331E-04-9.00898E-06-7.78346E-06-3.02857E-05-1.91944E-07
 -1      1349-9.92789E-06 1.02733E-04-1.05619E-05-1.45922E-05-2.52853E-05-3.31481E-06
 -1      1350-4.42734E-05 1.47595E-04-4.42935E-05 7.86692E-06-2.79651E-06-1.20897E-08
 -1      1351-4.42379E-05 1.44724E-04-4.30571E-05 8.41640E-06-4.07532E-06-5.48975E-07
 -1      1352-3.20949E-05 1.09174E-04-3.38319E-05 6.62408E-06-3.49149E-06 1.05696E-06
 -1      1353-5.56510E-05 1.57660E-04-3.99702E-05 5.46568E-06 1.96477E-05-8.95087E-06
 -1      1354-4.44674E-05 1.47907E-04-4.44112E-05 7.45293E-06-3.45138E-06 2.41867E-07
 -1      1355-6.82089E-05 2.14687E-04-5.91934E-05 4.84107E-06 9.46530E-06-5.41339E-07
 -1      1356-2.84787E-05 9.72396E-05-2.98746E-05 6.18129E-06-9.57594E-07-6.58997E-07
 -1      1357-3.45868E-05 1.17551E-04-3.65279E-05 6.02826E-06-3.87795E-06-2.31663E-07
 -1      1358-4.25300E-05 1.41850E-04-4.26791E-05 4.79787E-06-3.43124E-06-1.59020E-08
 -1      1359-4.70425E-05 1.57412E-04-4.74877E-05 9.64553E-06-1.64992E-06 9.93437E-07
 -1      1360-6.58529E-05 2.15786E-04-6.35493E-05 5.20881E-06-6.73560E-08 1.09507E-06
 -1      1361-2.90987E-05 1.17686E-04-4.85941E-05-8.01189E-06-6.14922E-05 1.29576E-05
 -1      1362-4.65807E-05 1.54420E-04-4.60829E-05 6.49258E-06-2.10141E-06-1.27701E-07
 -1      1363-4.30998E-05 1.43789E-04-4.30861E-05 9.61821E-06-1.44700E-06-4.80077E-07
 -1      1364-4.44527E-05 1.48554E-04-4.50581E-05 7.67153E-06-3.19318E-06 3.68504E-08
 -1      1365-5.67140E-05 1.86933E-04-5.52812E-05 4.36480E-06-3.13957E-06-1.93515E-08
 -1      1366-4.56152E-05 1.51585E-04-4.53278E-05 6.31129E-06-2.12612E-06-3.49069E-08
 -1      1367-5.58832E-05 1.85637E-04-5.50044E-05 4.74956E-06 6.76162E-07 3.24666E-07
 -1      1368-4.18519E-05 1.33813E-04-3.87584E-05 8.26607E-06-2.36156E-06-2.27784E-06
 -1      1369-6.42661E-05 2.05179E-04-5.65250E-05 2.42404E-06 2.07512E-05-2.52643E-06
 -1      1370-2.55869E-05 9.03092E-05-2.79428E-05 5.90040E-06-2.47932E-06 9.09636E-08
 -1      1371-3.82261E-05 1.27625E-04-3.85629E-05 5.80788E-06-1.15826E-06-1.35868E-07
 -1      1372-4.02081E-05 1.35490E-04-4.11065E-05 5.46508E-06-3.47602E-06-2.35450E-07
 -1      1373-4.70888E-05 1.28915E-04-2.53531E-05 1.27407E-05 7.96918E-06 1.66087E-06
 -1      1374-4.65775E-05 1.55021E-04-4.64229E-05 7.77317E-06-2.78564E-06 4.48398E-08
 -1      1375-3.57786E-05 1.19635E-04-3.73366E-05 6.36837E-06-3.56254E-06-8.47966E-08
 -1      1376-6.18041E-05 2.03368E-04-6.00407E-05 4.96881E-06-1.76795E-06 1.55385E-07
 -1      1377-1.69632E-05 8.66123E-06 1.73417E-05 2.13339E-05-4.13931E-05 1.15966E-05
 -1      1378-4.81721E-05 1.60015E-04-4.76597E-05 5.45152E-06-3.44385E-06 1.87349E-07
 -1      1379-5.20406E-05 1.72094E-04-5.15083E-05 5.33251E-06-1.67243E-06-1.04494E-07
 -1      1380-4.40185E-05 1.46731E-04-4.40088E-05 7.79168E-06-2.82811E-06-5.72562E-09
 -1      1381-4.36685E-05 1.44536E-04-4.36209E-05 8.04266E-06-3.68587E-06-2.18418E-07
 -1      1382-3.18976E-05 1.11636E-04-3.38248E-05 5.61203E-06-3.83151E-06 2.73339E-06
 -1      1383-5.74979E-05 1.96097E-04-5.69038E-05-1.80521E-05 2.42109E-05-1.30368E-05
 -1      1384-4.45136E-05 1.47885E-04-4.41022E-05 7.57171E-06-3.50039E-06 3.46189E-07
 -1      1385-7.52721E-05 2.33095E-04-6.31765E-05-3.64106E-07 1.82909E-05-2.24002E-06
 -1      1386-2.80173E-05 9.16409E-05-2.82035E-05 6.25065E-06-7.05826E-07-9.75448E-08
 -1      1387-3.65332E-05 1.24079E-04-3.82265E-05 5.45861E-06-2.69548E-06 1.25992E-07
 -1      1388-4.05160E-05 1.35813E-04-4.08946E-05 4.75303E-06-3.51155E-06-3.71540E-08
 -1      1389-4.78303E-05 1.60108E-04-4.82851E-05 9.27430E-06-1.82572E-06 1.43816E-06
 -1      1390-6.79646E-05 2.24203E-04-6.56301E-05 5.52945E-06-4.18114E-07 1.88318E-07
 -1      1391-4.54691E-05 1.51220E-04-4.53468E-05 6.39765E-06-2.18142E-06-1.50058E-07
 -1      1392-4.27845E-05 1.42350E-04-4.25919E-05 9.46128E-06-1.43390E-06-2.24948E-07
 -1      1393-4.42961E-05 1.48164E-04-4.47747E-05 7.52920E-06-3.20430E-06 2.58303E-09
 -1      1394-5.61192E-05 1.88833E-04-5.65260E-05 4.77205E-06-3.27346E-06 2.51929E-07
 -1      1395-4.69181E-05 1.55641E-04-4.65569E-05 6.12959E-06-2.26345E-06-6.19813E-09
 -1      1396-5.47325E-05 1.81087E-04-5.41094E-05 5.51933E-06 4.13664E-07 3.89896E-07
 -1      1397-4.22155E-05 1.36448E-04-4.01964E-05 9.07650E-06-2.93723E-06-9.46097E-07
 -1      1398-2.43109E-05 8.48688E-05-2.64337E-05 5.68530E-06-3.85608E-06-1.74377E-08
 -1      1399-4.01140E-05 1.34595E-04-4.05975E-05 6.20852E-06-7.45494E-07-1.16510E-07
 -1      1400-3.85499E-05 1.29437E-04-3.94050E-05 5.22875E-06-3.29372E-06-1.33313E-07
 -1      1401-5.45909E-05 1.24912E-04-1.51985E-05 1.63349E-05 1.52418E-05-1.49485E-06
 -1      1402-4.70076E-05 1.55375E-04-4.64393E-05 7.84026E-06-2.66365E-06 8.29394E-08
 -1      1403-3.55796E-05 1.21664E-04-3.83025E-05 5.16379E-06-3.27976E-06 1.35029E-07
 -1      1404-6.38045E-05 2.10651E-04-6.23643E-05 5.73965E-06-2.51373E-06 1.63576E-07
 -1      1405-1.93409E-06-2.72247E-05 5.56776E-07 4.54203E-05-9.43654E-05 2.90493E-05
 -1      1406-4.99466E-05 1.65961E-04-4.94044E-05 5.22344E-06-3.26939E-06 2.47650E-07
 -1      1407-4.94021E-05 1.64834E-04-4.93967E-05 5.51423E-06-2.00636E-06 9.42664E-08
 -1      1408-4.37799E-05 1.45872E-04-4.37115E-05 7.79816E-06-2.85740E-06-7.58289E-09
 -1      1409-4.34257E-05 1.44826E-04-4.38851E-05 7.97217E-06-3.28666E-06-5.94469E-08
 -1      1410-3.34825E-05 1.13889E-04-3.44972E-05 3.62455E-06-1.02202E-05 2.43791E-06
 -1      1411-4.47843E-05 1.47419E-04-4.30439E-05 7.18737E-06-3.29842E-06 9.13344E-07
 -1      1412-6.97006E-05 2.43565E-04-7.33482E-05-7.32431E-06 2.33831E-05-6.28055E-06
 -1      1413-2.42735E-05 8.41193E-05-2.58488E-05 5.44746E-06-8.77916E-07-1.31209E-06
 -1      1414-3.92243E-05 1.31668E-04-4.00680E-05 5.61861E-06-2.58006E-06 1.87378E-07
 -1      1415-3.95124E-05 1.31914E-04-3.98351E-05 4.85081E-06-3.53827E-06-5.61943E-08
 -1      1416-4.80159E-05 1.62076E-04-4.88755E-05 9.06415E-06-1.50744E-06 8.33639E-07
 -1      1417-6.96122E-05 2.28429E-04-6.63772E-05 4.94537E-06-9.93653E-07 1.48266E-06
 -1      1418-4.41986E-05 1.47600E-04-4.43635E-05 6.31176E-06-2.22309E-06 4.95696E-08
 -1      1419-4.22496E-05 1.40624E-04-4.19743E-05 9.28984E-06-1.69168E-06-7.29680E-07
 -1      1420-4.42961E-05 1.47905E-04-4.45291E-05 7.37123E-06-3.30007E-06 3.46967E-09
 -1      1421-6.05446E-05 1.98791E-04-5.86923E-05 4.65471E-06-3.42090E-06 4.92776E-07
 -1      1422-4.80201E-05 1.58669E-04-4.72112E-05 6.27213E-06-2.20316E-06-2.03619E-07
 -1      1423-5.25390E-05 1.73846E-04-5.19816E-05 5.91677E-06-6.87957E-07 6.73133E-07
 -1      1424-4.17434E-05 1.38242E-04-4.13363E-05 9.28192E-06-2.37243E-06-1.23693E-06
 -1      1425-2.42391E-05 8.26212E-05-2.51028E-05 6.06939E-06-2.51964E-06-3.63096E-07
 -1      1426-4.24647E-05 1.41882E-04-4.25940E-05 5.88262E-06-8.82191E-07-1.64894E-07
 -1      1427-3.78888E-05 1.27604E-04-3.88466E-05 5.33761E-06-3.25351E-06-1.90738E-07
 -1      1428-5.80879E-05 1.27268E-04-2.42724E-05 1.30208E-05 1.86035E-05-7.22194E-06
 -1      1429-4.74799E-05 1.56782E-04-4.65787E-05 7.21813E-06-2.81828E-06 1.22970E-07
 -1      1430-3.74111E-05 1.26793E-04-3.92752E-05 4.91641E-06-3.34972E-06-1.45453E-07
 -1      1431-6.38049E-05 2.10291E-04-6.13456E-05 5.27857E-06-2.04728E-06 5.15169E-07
 -1      1432-5.09956E-05 1.67801E-04-4.97862E-05 5.60196E-06-3.09093E-06 3.33744E-07
 -1      1433-4.81374E-05 1.59807E-04-4.78282E-05 5.49402E-06-2.27945E-06-2.04479E-08
 -1      1434-5.42140E-05 1.77102E-04-3.87126E-05 8.17601E-06 3.05571E-06 5.23521E-07
 -1      1435-4.35168E-05 1.45095E-04-4.34995E-05 7.85849E-06-2.84440E-06 2.27160E-09
 -1      1436-4.35520E-05 1.45593E-04-4.39441E-05 7.82846E-06-3.02742E-06-5.68248E-08
 -1      1437-3.65596E-05 1.23275E-04-3.67675E-05 1.84814E-07-1.79728E-05 2.94834E-06
 -1      1438-4.47715E-05 1.45417E-04-4.05786E-05 7.83174E-06-3.41960E-06 1.65015E-06
 -1      1439-2.21484E-05 7.67865E-05-2.42586E-05 5.42684E-06-7.40217E-07-1.46708E-07
 -1      1440-4.06013E-05 1.35857E-04-4.11135E-05 5.37070E-06-2.45536E-06 6.33295E-08
 -1      1441-3.70745E-05 1.24552E-04-3.78049E-05 4.71699E-06-3.60591E-06-7.50198E-08
 -1      1442-2.97498E-05 1.06482E-04-2.59098E-05 4.53465E-06-6.47663E-06 1.74779E-07
 -1      1443-4.75190E-05 1.61917E-04-4.89000E-05 9.31405E-06-1.41692E-06 1.87386E-06
 -1      1444-7.15027E-05 2.35053E-04-6.84013E-05 3.47610E-06-1.78817E-06 2.22721E-06
 -1      1445-4.31989E-05 1.44357E-04-4.34329E-05 6.33614E-06-1.95226E-06 1.43399E-07
 -1      1446-4.18497E-05 1.39099E-04-4.15896E-05 9.24944E-06-1.57517E-06-3.27828E-07
 -1      1447-4.43187E-05 1.47794E-04-4.43864E-05 7.44281E-06-3.35227E-06-3.38300E-09
 -1      1448-6.22373E-05 2.03287E-04-5.92986E-05 4.74710E-06-2.61617E-06 3.51848E-07
 -1      1449-4.90176E-05 1.60952E-04-4.75811E-05 6.57929E-06-1.76349E-06-5.40233E-07
 -1      1450-5.02325E-05 1.67495E-04-5.00540E-05 5.95444E-06-6.29381E-07 2.00730E-07
 -1      1451-4.19742E-05 1.40491E-04-4.24161E-05 9.13681E-06-1.75876E-06-1.02130E-06
 -1      1452-2.10392E-05 7.12184E-05-2.00429E-05 5.81344E-06-9.40560E-07 8.54071E-07
 -1      1453-4.46957E-05 1.48614E-04-4.44676E-05 5.90490E-06-7.62232E-07 2.16235E-08
 -1      1454-3.56241E-05 1.21160E-04-3.71796E-05 5.09945E-06-3.88725E-06-2.47891E-07
 -1      1455-4.71141E-05 1.56935E-04-4.66462E-05 7.11575E-06-3.44273E-06 6.69146E-07
 -1      1456-4.14222E-05 1.58341E-04-4.46813E-05 6.21436E-06-8.34795E-06 2.78992E-06
 -1      1457-3.97415E-05 1.32877E-04-4.03627E-05 4.85729E-06-3.37081E-06-9.85497E-08
 -1      1458-6.90045E-05 2.21105E-04-6.31231E-05 4.78874E-06-1.97365E-06 9.70157E-07
 -1      1459-5.26226E-05 1.74320E-04-5.17171E-05 4.91678E-06-3.76771E-06 1.20476E-07
 -1      1460-4.61195E-05 1.53575E-04-4.59946E-05 5.26600E-06-2.18363E-06-4.61070E-09
 -1      1461-5.64550E-05 1.79726E-04-4.90028E-05 4.28231E-06-2.60910E-06 6.28932E-07
 -1      1462-4.32951E-05 1.44177E-04-4.32841E-05 7.80575E-06-2.81580E-06 6.56365E-08
 -1      1463-4.38584E-05 1.46200E-04-4.39707E-05 7.79186E-06-2.85706E-06-1.77604E-08
 -1      1464-4.28319E-05 1.50545E-04-4.53742E-05-7.82691E-06-2.61494E-05 5.41498E-06
 -1      1465-4.59815E-05 1.41442E-04-3.50102E-05 8.73999E-06-4.07411E-06 3.55002E-06
 -1      1466-2.08124E-05 6.93187E-05-2.22814E-05 6.58680E-06-3.31950E-07 1.35187E-07
 -1      1467-4.25727E-05 1.42190E-04-4.28325E-05 5.31281E-06-2.34373E-06 1.15107E-07
 -1      1468-3.63752E-05 1.22084E-04-3.68940E-05 5.04223E-06-3.44758E-06-1.24123E-07
 -1      1469-3.45294E-05 1.16871E-04-3.51954E-05 7.42336E-06-3.27707E-06 1.02504E-06
 -1      1470-4.92763E-05 1.67613E-04-5.05306E-05 8.97508E-06-7.70378E-07 1.66584E-06
 -1      1471-7.32337E-05 2.41394E-04-6.93716E-05 1.24026E-06-4.61471E-06 3.26786E-06
 -1      1472-4.18391E-05 1.40494E-04-4.23627E-05 6.23467E-06-2.19085E-06 1.64444E-07
 -1      1473-4.10577E-05 1.36687E-04-4.08717E-05 9.57856E-06-1.85928E-06-1.23118E-06
 -1      1474-4.43391E-05 1.47744E-04-4.43194E-05 7.47028E-06-3.32122E-06 1.06507E-08
 -1      1475-6.15155E-05 2.03743E-04-5.92347E-05 4.78620E-06-2.25864E-06 7.82485E-07
 -1      1476-4.99859E-05 1.65489E-04-4.91269E-05 6.39220E-06-2.17477E-06-1.57562E-07
 -1      1477-4.85669E-05 1.61468E-04-4.83623E-05 6.13117E-06-5.81232E-07 1.14696E-08
 -1      1478-5.66374E-05 1.82702E-04-3.62312E-05 9.71876E-06-1.21534E-06 7.58110E-07
 -1      1479-4.27060E-05 1.42673E-04-4.28390E-05 9.34703E-06-1.65765E-06-2.68209E-07
 -1      1480-1.93397E-05 5.66924E-05-1.15324E-05 8.38335E-06 5.37138E-07 8.66772E-07
 -1      1481-4.64917E-05 1.55038E-04-4.63859E-05 5.95333E-06-7.59562E-07 1.19610E-07
 -1      1482-3.39722E-05 1.15694E-04-3.57324E-05 5.20460E-06-3.30463E-06-4.68588E-07
 -1      1483-4.79342E-05 1.57461E-04-4.52921E-05 6.74297E-06-4.95557E-06 1.63589E-06
 -1      1484-4.80790E-05 1.57606E-04-4.61884E-05 7.35145E-06-5.67063E-07 2.48501E-06
 -1      1485-4.08539E-05 1.36973E-04-4.15075E-05 4.70042E-06-3.51479E-06-2.21414E-08
 -1      1486-3.06135E-05 1.15071E-04-3.34576E-05 2.92453E-06-6.36642E-06 1.87826E-06
 -1      1487-7.11804E-05 2.24810E-04-6.10191E-05 4.01830E-06-3.27114E-06 2.03372E-06
 -1      1488-5.48319E-05 1.80507E-04-5.31226E-05 5.09220E-06-3.34794E-06 3.79738E-07
 -1      1489-4.40594E-05 1.47009E-04-4.41787E-05 5.42965E-06-2.23354E-06 1.05085E-09
 -1      1490-5.22316E-05 1.71867E-04-5.01945E-05 5.36232E-06-4.28494E-06-3.59741E-08
 -1      1491-4.30933E-05 1.43606E-04-4.30990E-05 7.80723E-06-2.69398E-06 7.64209E-09
 -1      1492-4.41639E-05 1.46968E-04-4.41147E-05 7.90366E-06-2.75166E-06-1.21694E-08
 -1      1493-5.24888E-05 1.96824E-04-6.46359E-05-2.06550E-05-3.32776E-05 4.98764E-06
 -1      1494-4.84405E-05 1.33644E-04-2.53943E-05 1.08980E-05-5.56486E-06 6.12735E-06
 -1      1495-1.87903E-05 6.31891E-05-1.93645E-05 7.09064E-06 2.48299E-07-1.02719E-06
 -1      1496-4.44807E-05 1.48035E-04-4.42949E-05 5.55742E-06-2.23199E-06 3.65016E-08
 -1      1497-3.41005E-05 1.15287E-04-3.53134E-05 4.66331E-06-3.36685E-06-2.07916E-07
 -1      1498-3.80177E-05 1.25706E-04-3.91095E-05 6.89286E-06-1.99890E-06 3.94236E-07
 -1      1499-4.99146E-05 1.66557E-04-5.01022E-05 8.49704E-06-9.22452E-07 1.05196E-06
 -1      1500-4.09494E-05 1.49809E-04-3.43595E-05 9.05343E-06-7.99373E-06 9.95378E-07
 -1      1501-7.32870E-05 2.44151E-04-6.92940E-05-1.06461E-06-9.12889E-06 4.98269E-06
 -1      1502-4.04856E-05 1.36520E-04-4.13117E-05 6.01975E-06-2.21733E-06 6.43484E-08
 -1      1503-4.07819E-05 1.35272E-04-4.03053E-05 9.55341E-06-2.03689E-06-1.33157E-06
 -1      1504-4.43250E-05 1.47788E-04-4.43317E-05 7.30377E-06-3.34286E-06 1.37553E-08
 -1      1505-6.65847E-05 2.14226E-04-6.02416E-05 4.84464E-06-1.14442E-06 1.57531E-06
 -1      1506-5.13458E-05 1.69720E-04-5.04014E-05 6.10218E-06-2.10336E-06-6.71420E-07
 -1      1507-4.61887E-05 1.53912E-04-4.62025E-05 6.20137E-06-8.07831E-07 2.25883E-07
 -1      1508-5.90549E-05 1.87881E-04-5.01498E-05 4.11002E-06-3.50364E-06 2.75251E-07
 -1      1509-4.31662E-05 1.44294E-04-4.33007E-05 9.56835E-06-1.31332E-06-3.69978E-07
 -1      1510-2.46507E-05 4.90019E-05-5.36743E-07 1.34379E-05 7.98756E-06 1.20285E-07
 -1      1511-4.91257E-05 1.63003E-04-4.87282E-05 5.84908E-06-6.69135E-07 7.46342E-08
 -1      1512-3.46940E-05 1.16387E-04-3.58892E-05 5.30677E-06-3.08999E-06-3.89216E-07
 -1      1513-4.86627E-05 1.55603E-04-4.20104E-05 5.84195E-06-8.42373E-06 3.42270E-06
 -1      1514-4.78452E-05 1.56648E-04-4.67179E-05 8.57125E-06-2.11758E-08 9.20533E-07
 -1      1515-4.27284E-05 1.42629E-04-4.29153E-05 4.79282E-06-3.50029E-06 2.63944E-09
 -1      1516-3.61332E-05 1.20622E-04-3.63274E-05 6.38662E-06-5.88814E-07 1.95135E-06
 -1      1517-6.82263E-05 2.16802E-04-5.63020E-05 3.62760E-06-5.12803E-06 4.87109E-06
 -1      1518-5.39930E-05 1.79439E-04-5.29975E-05 5.47931E-06-3.17403E-06 4.06718E-07
 -1      1519-4.22936E-05 1.41189E-04-4.25169E-05 5.40826E-06-2.17889E-06 7.06123E-09
 -1      1520-5.19536E-05 1.70961E-04-5.07225E-05 5.49529E-06-4.08626E-06-2.24810E-08
 -1      1521-4.26858E-05 1.42287E-04-4.27997E-05 8.04316E-06-2.62705E-06-8.55993E-08
 -1      1522-4.43990E-05 1.48010E-04-4.43700E-05 7.87335E-06-2.70247E-06 3.30452E-08
 -1      1523-5.20165E-05 1.24161E-04-1.70004E-05 1.41625E-05-8.23483E-06 9.47283E-06
 -1      1524-1.76858E-05 5.52244E-05-1.50547E-05 7.91014E-06 5.56903E-06-1.13349E-06
 -1      1525-4.63857E-05 1.54350E-04-4.61261E-05 5.34084E-06-2.15921E-06-1.65543E-08
 -1      1526-3.19255E-05 1.08728E-04-3.34511E-05 4.40959E-06-3.06537E-06 1.40873E-08
 -1      1527-3.70330E-05 1.26169E-04-3.94089E-05 5.92493E-06-2.37636E-06-1.40755E-08
 -1      1528-5.14406E-05 1.69263E-04-5.06760E-05 7.07414E-06-3.12524E-06 3.46475E-06
 -1      1529-4.78377E-05 1.56785E-04-4.43116E-05 8.60715E-06-2.65617E-06 1.11185E-06
 -1      1530-7.18785E-05 2.48012E-04-7.12356E-05 2.24963E-06-1.29226E-05 2.56454E-06
 -1      1531-3.95052E-05 1.34223E-04-4.09704E-05 6.38811E-06-1.73904E-06 3.60277E-07
 -1      1532-4.02479E-05 1.33380E-04-3.98674E-05 9.54882E-06-1.59567E-06-6.41796E-07
 -1      1533-4.43025E-05 1.47765E-04-4.43432E-05 7.39504E-06-3.35267E-06 2.06012E-08
 -1      1534-6.87863E-05 2.15154E-04-5.63821E-05 4.55649E-06 1.25220E-06 2.19219E-06
 -1      1535-5.21212E-05 1.71176E-04-5.02241E-05 5.95808E-06-1.95638E-06-7.26299E-07
 -1      1536-4.40003E-05 1.46852E-04-4.42018E-05 6.00862E-06-8.32313E-07 6.46876E-09
 -1      1537-5.43707E-05 1.80719E-04-5.33773E-05 4.51967E-06-3.32467E-06 2.19613E-07
 -1      1538-4.38989E-05 1.46308E-04-4.39573E-05 9.47786E-06-1.35762E-06-2.21056E-07
 -1      1539-1.96848E-05-2.05819E-06 2.80874E-05 3.05698E-05 2.84596E-05-2.80706E-06
 -1      1540-5.07910E-05 1.69446E-04-5.04883E-05 5.93973E-06-5.88973E-07 1.10546E-07
 -1      1541-3.08428E-05 1.07864E-04-3.37904E-05 5.11530E-06-3.72659E-06-4.68115E-07
 -1      1542-5.01475E-05 1.54115E-04-3.84625E-05 4.47773E-06-1.49767E-05 7.63157E-06
 -1      1543-4.72401E-05 1.55483E-04-4.66213E-05 9.25810E-06-5.42715E-07 1.28386E-06
 -1      1544-4.42773E-05 1.47790E-04-4.43504E-05 4.84965E-06-3.43684E-06-2.49399E-08
 -1      1545-3.78119E-05 1.24930E-04-3.81189E-05 6.44659E-06-6.04049E-07 7.90514E-07
 -1      1546-7.13491E-05 2.18590E-04-5.42121E-05 2.28513E-06-5.07351E-06 7.14323E-06
 -1      1547-5.80381E-05 1.88348E-04-5.51059E-05 5.33943E-06-3.69452E-06 6.79284E-07
 -1      1548-4.01969E-05 1.34872E-04-4.07152E-05 5.42305E-06-2.30796E-06-6.75373E-09
 -1      1549-5.03102E-05 1.66113E-04-4.97224E-05 5.40064E-06-4.09014E-06 1.41012E-07
 -1      1550-4.23422E-05 1.41461E-04-4.25224E-05 7.87992E-06-2.66814E-06-2.32622E-09
 -1      1551-4.46406E-05 1.48819E-04-4.46657E-05 7.78299E-06-2.77551E-06 1.95024E-08
 -1      1552-5.23776E-05 1.23755E-04-3.25319E-05 1.34402E-05-1.27738E-05 9.72712E-06
 -1      1553-1.98199E-05 5.38364E-05-1.16535E-05 1.02136E-05 1.44175E-05-1.32537E-06
 -1      1554-4.86487E-05 1.60804E-04-4.79266E-05 5.36700E-06-2.35017E-06 9.34420E-09
 -1      1555-3.25954E-05 1.06944E-04-3.24147E-05 4.80118E-06-3.31914E-06-9.66619E-08
 -1      1556-3.84122E-05 1.30109E-04-4.00736E-05 5.64241E-06-3.09547E-06-9.55690E-08
 -1      1557-5.07698E-05 1.72405E-04-5.12486E-05 4.95979E-06-6.09831E-06 4.30213E-06
 -1      1558-4.71398E-05 1.55000E-04-4.62479E-05 8.23628E-06-1.63164E-06 6.73199E-07
 -1      1559-3.92525E-05 1.30288E-04-3.94604E-05 6.17927E-06-1.91259E-06 7.25815E-08
 -1      1560-4.03648E-05 1.31227E-04-3.92109E-05 9.56899E-06-1.73095E-06-2.27690E-06
 -1      1561-4.42962E-05 1.47719E-04-4.43245E-05 7.50152E-06-3.36385E-06 1.02523E-08
 -1      1562-6.73446E-05 2.07596E-04-4.93892E-05 5.81428E-06 3.40064E-06 3.82642E-06
 -1      1563-5.32566E-05 1.76263E-04-5.18929E-05 6.18383E-06-2.13861E-06-1.33132E-07
 -1      1564-4.21443E-05 1.40409E-04-4.22293E-05 5.99139E-06-7.81932E-07-1.36476E-07
 -1      1565-5.37289E-05 1.77063E-04-5.26084E-05 4.48538E-06-3.09956E-06-1.27876E-07
 -1      1566-4.45120E-05 1.48214E-04-4.44310E-05 9.38550E-06-1.48120E-06 5.25982E-09
 -1      1567-2.23875E-05-9.19169E-05 6.85852E-05 1.01886E-04 5.47463E-05-5.11897E-06
 -1      1568-5.26236E-05 1.74559E-04-5.19451E-05 6.24404E-06-7.80167E-07 1.75472E-07
 -1      1569-2.94381E-05 1.01789E-04-3.14906E-05 5.39297E-06-3.91045E-06-1.01925E-06
 -1      1570-5.18756E-05 1.70457E-04-4.49937E-05 4.91090E-06 4.74481E-06 2.60581E-07
 -1      1571-5.07043E-05 1.53465E-04-3.86119E-05 9.39308E-07-2.17196E-05 1.30229E-05
 -1      1572-4.64520E-05 1.54177E-04-4.61599E-05 9.23897E-06-8.84185E-07 1.04140E-06
 -1      1573-4.61408E-05 1.53690E-04-4.59765E-05 4.79730E-06-3.48400E-06 2.31394E-08
 -1      1574-3.77584E-05 1.28311E-04-3.92574E-05 5.94858E-06-1.22648E-06 2.57368E-07
 -1      1575-6.11115E-05 2.08673E-04-6.11130E-05 1.23016E-06-1.67142E-06 1.03797E-06
 -1      1576-5.94096E-05 1.93484E-04-5.66880E-05 5.98247E-06-3.31675E-06 1.52020E-06
 -1      1577-3.87696E-05 1.29930E-04-3.93965E-05 5.49890E-06-2.20406E-06 2.01392E-07
 -1      1578-4.78505E-05 1.59490E-04-4.78014E-05 5.50452E-06-3.63354E-06 2.11233E-07
 -1      1579-4.21048E-05 1.40591E-04-4.22659E-05 7.91680E-06-2.89444E-06-5.00432E-09
 -1      1580-4.48743E-05 1.49537E-04-4.49060E-05 7.77294E-06-2.75668E-06 2.46541E-08
 -1      1581-2.96174E-05 7.38036E-05-1.26261E-05 1.10045E-05 3.19775E-05-7.76270E-06
 -1      1582-4.98061E-05 1.65448E-04-4.92488E-05 5.66478E-06-2.16468E-06-7.37390E-08
 -1      1583-2.82103E-05 9.69646E-05-3.00213E-05 4.62731E-06-3.72129E-06-2.32549E-07
 -1      1584-4.09017E-05 1.36475E-04-4.14328E-05 5.57244E-06-3.18959E-06-2.27950E-08
 -1      1585-5.32127E-05 1.81201E-04-5.39719E-05 6.67704E-07-1.03787E-05 5.14081E-06
 -1      1586-4.58420E-05 1.52919E-04-4.62714E-05 7.97371E-06-1.84389E-06 2.45668E-07
 -1      1587-3.69007E-05 1.25132E-04-3.79634E-05 6.01538E-06-2.03399E-06 5.28671E-07
 -1      1588-4.03168E-05 1.29546E-04-3.80705E-05 1.01652E-05-1.40171E-06-1.57622E-06
 -1      1589-4.43585E-05 1.47782E-04-4.43414E-05 7.38325E-06-3.33563E-06-5.81087E-09
 -1      1590-7.22012E-05 2.10596E-04-4.73478E-05 5.17504E-06 8.16994E-06 3.97900E-06
 -1      1591-5.46098E-05 1.80097E-04-5.35507E-05 6.27590E-06-1.56183E-06-9.83095E-07
 -1      1592-3.96932E-05 1.33051E-04-4.01403E-05 6.01640E-06-5.64083E-07-2.18075E-07
 -1      1593-5.13185E-05 1.69920E-04-5.08552E-05 4.91125E-06-3.30236E-06-1.45948E-08
 -1      1594-4.49426E-05 1.49727E-04-4.49453E-05 9.30323E-06-1.45712E-06 2.91645E-07
 -1      1595-5.55066E-05 1.83412E-04-5.45662E-05 5.83483E-06-6.58696E-07 1.32582E-07
 -1      1596-3.09780E-05 1.03985E-04-3.16333E-05 6.13568E-06-3.82708E-06-3.66476E-07
 -1      1597-5.24794E-05 1.69263E-04-4.87250E-05 3.75486E-06-1.96151E-06-1.18785E-07
 -1      1598-4.64340E-05 1.55624E-04-4.83160E-05-8.73310E-06-1.79848E-05 7.86089E-06
 -1      1599-4.57394E-05 1.52443E-04-4.58533E-05 9.41875E-06-1.31248E-06 2.78807E-07
 -1      1600-4.81230E-05 1.59730E-04-4.77757E-05 4.76003E-06-3.53015E-06 4.97287E-08
 -1      1601-3.92866E-05 1.32622E-04-4.02572E-05 5.91780E-06-1.76548E-06 2.82720E-07
 -1      1602-5.83029E-05 1.91944E-04-5.57163E-05 6.43693E-06-1.92652E-06 1.74119E-06
 -1      1603-3.64338E-05 1.22406E-04-3.74236E-05 5.30553E-06-1.94462E-06 1.36580E-07
 -1      1604-2.55887E-05 8.95968E-05-2.60587E-05 4.47309E-06 9.01785E-07-2.67437E-06
 -1      1605-4.70440E-05 1.56665E-04-4.69445E-05 5.35571E-06-3.66160E-06 6.31826E-08
 -1      1606-4.18711E-05 1.40249E-04-4.22522E-05 8.12497E-06-2.91177E-06 1.16728E-07
 -1      1607-4.51169E-05 1.50497E-04-4.51407E-05 7.86303E-06-2.72199E-06 2.38030E-08
 -1      1608-3.42227E-05 1.09228E-04-3.01394E-05-1.32108E-07 5.86247E-05-2.05765E-05
 -1      1609-5.21587E-05 1.73116E-04-5.12809E-05 5.30463E-06-1.90525E-06-1.05990E-07
 -1      1610-2.66034E-05 9.28219E-05-2.89780E-05 4.80680E-06-3.90217E-06-7.36036E-08
 -1      1611-4.14043E-05 1.38981E-04-4.20490E-05 5.28313E-06-3.41389E-06-3.92883E-08
 -1      1612-5.48567E-05 1.96110E-04-5.92176E-05-8.40234E-06-1.51870E-05 8.85924E-06
 -1      1613-4.53231E-05 1.51538E-04-4.57252E-05 8.04321E-06-2.23115E-06 1.55453E-07
 -1      1614-3.65609E-05 1.24765E-04-3.84617E-05 6.05763E-06-1.73895E-06 5.72567E-07
 -1      1615-3.93034E-05 1.27778E-04-3.73081E-05 9.98354E-06-9.91880E-07-3.87814E-07
 -1      1616-4.44062E-05 1.47829E-04-4.43343E-05 7.48208E-06-3.35278E-06-3.95628E-08
 -1      1617-6.32500E-05 2.04733E-04-5.68461E-05 4.35935E-06 1.00888E-05 7.32919E-07
 -1      1618-5.56474E-05 1.81679E-04-5.29330E-05 6.14828E-06-2.38719E-06-1.19041E-06
 -1      1619-3.77405E-05 1.25899E-04-3.81697E-05 5.92415E-06-6.36814E-07-7.94362E-08
 -1      1620-4.91526E-05 1.64394E-04-4.94682E-05 4.76541E-06-3.35153E-06 3.24295E-07
 -1      1621-4.54285E-05 1.51614E-04-4.56261E-05 9.62042E-06-1.54585E-06 4.92602E-07
 -1      1622-5.73348E-05 1.89989E-04-5.61889E-05 6.68152E-06-8.59776E-07 2.71513E-07
 -1      1623-2.80540E-05 9.50963E-05-2.69190E-05 4.07805E-06-8.05504E-06 9.83268E-07
 -1      1624-5.06416E-05 1.66289E-04-4.90011E-05 4.97880E-06-3.29238E-06-3.07213E-07
 -1      1625-4.53611E-05 1.51096E-04-4.54022E-05 9.54423E-06-1.17372E-06 3.94573E-07
 -1      1626-3.92109E-05 1.41816E-04-3.01603E-05 1.03271E-05-3.04542E-06-1.44048E-07
 -1      1627-4.90793E-05 1.63633E-04-4.89033E-05 4.82508E-06-3.53868E-06 5.11018E-08
 -1      1628-4.12162E-05 1.37408E-04-4.13821E-05 6.17478E-06-1.95697E-06 2.24770E-08
 -1      1629-6.20654E-05 2.01919E-04-5.73761E-05 5.88639E-06-5.76271E-07 1.41150E-06
 -1      1630-3.53554E-05 1.19473E-04-3.64628E-05 5.45234E-06-2.41247E-06 4.02138E-07
 -1      1631-2.83880E-05 9.64969E-05-2.99837E-05 6.46141E-06-2.52590E-06-1.51806E-06
 -1      1632-4.56856E-05 1.51878E-04-4.53662E-05 5.28394E-06-3.50611E-06 1.98612E-08
 -1      1633-4.13386E-05 1.39094E-04-4.17511E-05 7.85840E-06-2.82192E-06 4.33304E-07
 -1      1634-4.54336E-05 1.51461E-04-4.54155E-05 7.82656E-06-2.78636E-06-9.08984E-09
 -1      1635-5.34660E-05 1.76119E-04-5.21669E-05 5.38677E-06-2.42953E-06-4.53586E-07
 -1      1636-2.72598E-05 8.78563E-05-2.59498E-05 5.04452E-06-4.37213E-06 8.80646E-08
 -1      1637-5.66212E-05 1.90012E-04-4.14235E-05 9.73304E-06-8.72339E-06 1.03249E-06
 -1      1638-4.29606E-05 1.43519E-04-4.32332E-05 5.28033E-06-3.55867E-06-2.74592E-08
 -1      1639-5.47836E-05 2.08240E-04-6.43952E-05-1.84596E-05-1.80324E-05 2.06346E-06
 -1      1640-4.50380E-05 1.50267E-04-4.52744E-05 7.85105E-06-2.53185E-06 1.04233E-07
 -1      1641-3.53015E-05 1.19341E-04-3.68661E-05 5.89241E-06-1.97429E-06 1.61957E-07
 -1      1642-3.85883E-05 1.26435E-04-3.67489E-05 1.01392E-05-4.11427E-07-2.44546E-06
 -1      1643-4.43102E-05 1.47834E-04-4.43953E-05 7.59135E-06-3.45431E-06-3.89375E-08
 -1      1644-5.73330E-05 1.85961E-04-5.41769E-05 7.79329E-06-1.68495E-06-2.84781E-07
 -1      1645-3.59149E-05 1.20721E-04-3.66916E-05 6.25600E-06-8.61030E-07-1.49928E-07
 -1      1646-2.57405E-05 9.40259E-05-2.41916E-05 3.81163E-06 1.01321E-06-1.11915E-06
 -1      1647-4.77395E-05 1.58799E-04-4.75780E-05 4.75745E-06-3.45798E-06 6.68925E-08
 -1      1648-4.59402E-05 1.53312E-04-4.60789E-05 9.46468E-06-1.46618E-06 2.54535E-07
 -1      1649-5.98420E-05 1.97951E-04-5.87230E-05 6.50512E-06-7.84926E-07 6.25584E-07
 -1      1650-2.71141E-05 8.98054E-05-2.32684E-05 4.53954E-06-1.41445E-05 2.31058E-06
 -1      1651-5.04610E-05 1.64614E-04-4.88846E-05 5.91817E-06-3.18476E-06-2.31279E-07
 -1      1652-4.47133E-05 1.49243E-04-4.47671E-05 9.47039E-06-1.28073E-06 2.29101E-07
 -1      1653-4.67863E-05 1.51540E-04-4.14481E-05 9.26506E-06-3.52981E-06 1.45677E-07
 -1      1654-5.16114E-05 1.70998E-04-5.08001E-05 4.69943E-06-3.54901E-06 8.42132E-08
 -1      1655-4.18449E-05 1.40486E-04-4.24331E-05 6.29071E-06-2.09186E-06 2.39912E-08
 -1      1656-6.65145E-05 2.07698E-04-5.54648E-05 6.53952E-06 4.21064E-06 2.56455E-06
 -1      1657-3.24790E-05 1.10847E-04-3.39734E-05 5.18993E-06-1.90468E-06 1.31070E-07
 -1      1658-3.25998E-05 1.04752E-04-3.17418E-05 6.06961E-06-2.22488E-06-5.31990E-07
 -1      1659-4.42221E-05 1.47395E-04-4.42385E-05 5.53584E-06-3.38870E-06 3.73524E-08
 -1      1660-4.16485E-05 1.38162E-04-4.06492E-05 8.57958E-06-2.36072E-06 6.96411E-07
 -1      1661-4.57328E-05 1.52353E-04-4.56314E-05 7.83294E-06-2.80810E-06-6.69779E-08
 -1      1662-5.55621E-05 1.84022E-04-5.45895E-05 4.95792E-06-1.88200E-06-2.33414E-07
 -1      1663-2.39240E-05 7.93679E-05-2.13696E-05 5.51268E-06-6.04709E-06 1.20367E-06
 -1      1664-4.44413E-05 1.48170E-04-4.44561E-05 5.48767E-06-3.44233E-06-3.47426E-08
 -1      1665-5.91543E-05 1.90966E-04-5.29528E-05 4.15327E-06-2.40263E-06-8.17454E-08
 -1      1666-4.47387E-05 1.49424E-04-4.49553E-05 7.81534E-06-2.69016E-06 3.51476E-08
 -1      1667-3.75506E-05 1.38474E-04-3.22120E-05 9.46538E-06 2.45416E-06-8.98515E-07
 -1      1668-3.41348E-05 1.15642E-04-3.52421E-05 5.92742E-06-1.34131E-06 1.01038E-06
 -1      1669-4.20425E-05 1.30037E-04-3.67367E-05 1.15483E-05 2.94978E-06-2.28171E-06
 -1      1670-4.42541E-05 1.47717E-04-4.43806E-05 7.55064E-06-3.41797E-06 3.61862E-09
 -1      1671-5.91365E-05 1.89822E-04-5.48932E-05 7.65743E-06 6.56531E-07-1.56783E-06
 -1      1672-3.35403E-05 1.12881E-04-3.44452E-05 5.93691E-06-9.74002E-07 2.49968E-08
 -1      1673-3.03486E-05 1.05099E-04-3.22758E-05 7.42740E-06-2.85791E-06-9.29383E-07
 -1      1674-4.58876E-05 1.52850E-04-4.57967E-05 4.76200E-06-3.47294E-06 5.74648E-09
 -1      1675-4.65102E-05 1.55025E-04-4.66590E-05 9.32043E-06-1.66897E-06 7.47575E-07
 -1      1676-6.08861E-05 2.03293E-04-6.04228E-05 6.55880E-06-5.05119E-07 4.06022E-07
 -1      1677-3.19267E-05 9.29385E-05-2.10477E-05 2.16676E-06-2.73608E-05 6.03245E-06
 -1      1678-4.91847E-05 1.61610E-04-4.83424E-05 6.33274E-06-2.52866E-06-4.02058E-07
 -1      1679-4.42123E-05 1.47503E-04-4.42611E-05 9.35033E-06-1.43248E-06-2.10400E-08
 -1      1680-4.60500E-05 1.51064E-04-4.49944E-05 8.37898E-06-3.40329E-06 1.39420E-07
 -1      1681-5.23782E-05 1.73434E-04-5.16799E-05 5.04427E-06-3.50993E-06 1.45075E-07
 -1      1682-5.56422E-05 1.92589E-04-5.33880E-05 5.67987E-06-6.92409E-06 1.17010E-06
 -1      1683-4.32582E-05 1.44357E-04-4.33442E-05 6.41074E-06-2.18731E-06 8.71034E-08
 -1      1684-6.70216E-05 2.03783E-04-4.95832E-05 6.31459E-06 1.21547E-05 1.76661E-06
 -1      1685-3.00746E-05 1.03352E-04-3.19118E-05 5.30343E-06-2.68738E-06-1.81493E-07
 -1      1686-3.33531E-05 1.11408E-04-3.36789E-05 5.94410E-06-1.97455E-06-4.45897E-07
 -1      1687-4.29530E-05 1.43194E-04-4.30796E-05 5.49467E-06-3.53212E-06-1.62651E-08
 -1      1688-4.19224E-05 1.35846E-04-3.83551E-05 9.29492E-06-1.20577E-06 1.13946E-06
 -1      1689-4.59781E-05 1.53058E-04-4.59659E-05 8.01959E-06-2.69063E-06 5.90823E-08
 -1      1690-2.79036E-05 9.92417E-05-2.46120E-05 4.51776E-06-2.58630E-06 9.02918E-08
 -1      1691-5.85244E-05 1.93092E-04-5.70919E-05 4.77726E-06-2.21615E-06 1.23910E-07
 -1      1692-2.26737E-05 6.80862E-05-1.36561E-05 5.24164E-06-8.88674E-06 3.02584E-06
 -1      1693-4.57743E-05 1.52315E-04-4.55965E-05 5.49822E-06-3.51066E-06 1.38388E-08
 -1      1694-5.51831E-05 1.82412E-04-5.38134E-05 5.13194E-06-1.34773E-06 2.42585E-07
 -1      1695-4.44834E-05 1.48513E-04-4.45942E-05 7.87838E-06-2.77140E-06 3.21147E-08
 -1      1696-4.44381E-05 1.44841E-04-4.08308E-05 9.05427E-06-2.96493E-06-8.13332E-07
 -1      1697-3.32422E-05 1.13987E-04-3.55832E-05 5.99472E-06-2.66292E-06 1.23638E-06
 -1      1698-4.64238E-05 1.35233E-04-3.57761E-05 1.18797E-05 1.00046E-05-1.76677E-06
 -1      1699-4.43750E-05 1.47885E-04-4.44029E-05 7.36741E-06-3.54323E-06 1.30557E-07
 -1      1700-6.12573E-05 1.98131E-04-5.63726E-05 6.37494E-06 3.78357E-06-3.92204E-07
 -1      1701-3.12990E-05 1.05909E-04-3.23491E-05 6.42935E-06-1.15638E-06-5.04177E-07
 -1      1702-3.43114E-05 1.14404E-04-3.52910E-05 6.98830E-06-4.03303E-06-7.31222E-07
 -1      1703-4.42500E-05 1.47362E-04-4.42538E-05 4.91162E-06-3.42796E-06-1.04074E-09
 -1      1704-4.68193E-05 1.56903E-04-4.72471E-05 9.29474E-06-1.47356E-06 4.68218E-07
 -1      1705-6.41579E-05 2.10647E-04-6.25154E-05 6.06959E-06-7.56788E-07 1.79127E-06
 -1      1706-2.67914E-05 8.82464E-05-2.32781E-05-2.48428E-06-4.96357E-05 1.00626E-05
 -1      1707-4.74442E-05 1.57990E-04-4.74058E-05 6.40879E-06-2.20460E-06-2.18456E-08
 -1      1708-4.36703E-05 1.45807E-04-4.37236E-05 9.26810E-06-1.44649E-06-2.76106E-07
 -1      1709-4.48902E-05 1.49392E-04-4.53585E-05 7.95278E-06-3.33036E-06 4.42515E-09
 -1      1710-5.45471E-05 1.80335E-04-5.35144E-05 4.67276E-06-3.41011E-06 2.60565E-07
 -1      1711-5.88721E-05 1.91620E-04-5.55525E-05 3.51310E-06-6.89080E-07 2.88996E-07
 -1      1712-4.45175E-05 1.47964E-04-4.43159E-05 6.29928E-06-2.24912E-06-2.13854E-08
 -1      1713-3.39665E-05 1.27753E-04-3.60253E-05 6.28377E-06 4.21388E-06-2.31872E-06
 -1      1714-7.39691E-05 2.10699E-04-4.80641E-05 5.10977E-06 1.95390E-05 7.19776E-08
 -1      1715-3.03107E-05 1.01190E-04-3.07138E-05 5.79963E-06-2.61855E-06-3.57822E-07
 -1      1716-3.56360E-05 1.20198E-04-3.64719E-05 5.96070E-06-1.68550E-06-6.36167E-07
 -1      1717-4.13438E-05 1.38882E-04-4.19326E-05 5.50799E-06-3.37022E-06-1.54656E-07
 -1      1718-4.32881E-05 1.33597E-04-3.41571E-05 1.04536E-05 2.44055E-06 1.96404E-06
 -1      1719-4.61467E-05 1.53946E-04-4.62272E-05 7.89946E-06-2.63820E-06 2.31994E-08
 -1      1720-3.21457E-05 1.09251E-04-3.28704E-05 7.16053E-06-3.52791E-06-1.92484E-07
 -1      1721-5.79686E-05 1.92900E-04-5.72533E-05 5.42718E-06-2.31950E-06 1.04813E-07
 -1      1722-2.55442E-05 5.25830E-05 1.18078E-06 9.29482E-06-1.60095E-05 4.95380E-06
 -1      1723-4.73769E-05 1.56920E-04-4.67325E-05 5.44258E-06-3.35779E-06 1.37899E-07
 -1      1724-5.47010E-05 1.79897E-04-5.35310E-05 5.28440E-06-1.61488E-06 1.72526E-07
 -1      1725-2.77054E-05 1.40634E-04-2.78132E-05 1.22632E-05 1.43411E-05-1.09220E-06
 -1      1726-2.72409E-05 1.38559E-04-1.89553E-05 1.45945E-05 3.95893E-06 5.05525E-07
 -1      1727-4.73047E-05 1.55801E-04-4.26251E-05 7.81421E-06-3.63612E-07-4.04922E-07
 -1      1728-4.82559E-05 1.55630E-04-4.52203E-05 7.37518E-06-3.82634E-06-4.98731E-07
 -1      1729-5.04724E-05 1.64354E-04-4.05841E-05 8.90884E-06-1.98764E-06-4.81221E-08
 -1      1730-5.07450E-05 1.64422E-04-4.70007E-05 6.81547E-06-3.93003E-06-1.11075E-07
 -1      1731-4.67408E-05 1.52976E-04-4.54409E-05 7.73197E-06-3.50335E-06-4.57880E-07
 -1      1732-4.56968E-05 1.52288E-04-4.59635E-05 7.91888E-06-3.15392E-06-3.02580E-07
 -1      1733-4.87062E-05 1.60573E-04-4.79798E-05 7.35245E-06-3.98542E-06-1.81507E-07
 -1      1734-4.74378E-05 1.57872E-04-4.76413E-05 7.15428E-06-3.68172E-06-5.41899E-08
 -1      1735-4.62728E-05 1.53651E-04-4.62067E-05 7.46530E-06-2.93062E-06-1.48993E-07
 -1      1736-4.51869E-05 1.50546E-04-4.51536E-05 7.97887E-06-2.52760E-06-2.73381E-08
 -1      1737-4.69996E-05 1.56485E-04-4.71123E-05 6.63746E-06-3.51106E-06 2.76675E-08
 -1      1738-4.58320E-05 1.52914E-04-4.60024E-05 6.94846E-06-3.40257E-06-6.01139E-08
 -1      1739-4.47916E-05 1.49226E-04-4.47017E-05 8.14493E-06-2.35259E-06-6.10599E-08
 -1      1740-4.46833E-05 1.48432E-04-4.44585E-05 7.63609E-06-2.39606E-06-7.39128E-08
 -1      1741-4.52285E-05 1.50779E-04-4.52818E-05 7.10625E-06-3.37071E-06-2.17533E-11
 -1      1742-4.47190E-05 1.48919E-04-4.46816E-05 6.73545E-06-3.37774E-06 1.42445E-08
 -1      1743-4.42544E-05 1.47468E-04-4.42028E-05 8.20104E-06-2.27827E-06 4.54707E-08
 -1      1744-4.38738E-05 1.46445E-04-4.40517E-05 8.15333E-06-2.16883E-06 8.92941E-08
 -1      1745-4.40719E-05 1.46740E-04-4.40347E-05 6.86790E-06-3.33781E-06 1.82546E-08
 -1      1746-4.33870E-05 1.44822E-04-4.34714E-05 6.81544E-06-3.34860E-06 2.96988E-08
 -1      1747-4.28899E-05 1.44038E-04-4.34095E-05 7.46864E-06-2.39696E-06-1.18380E-07
 -1      1748-4.32488E-05 1.44594E-04-4.36128E-05 8.44211E-06-2.27519E-06 5.50795E-08
 -1      1749-4.21782E-05 1.41645E-04-4.28458E-05 6.73371E-06-3.31243E-06 5.31635E-08
 -1      1750-4.21537E-05 1.40704E-04-4.23358E-05 6.81757E-06-3.45271E-06 1.98971E-08
 -1      1751-1.95556E-05 1.04104E-04-2.06514E-05 4.72311E-07 1.13641E-05-3.99508E-07
 -1      1752-2.28894E-05 1.06499E-04-1.62664E-05 2.40916E-06 2.51426E-06-1.47828E-07
 -1      1753-3.56613E-05 1.21216E-04-3.48741E-05 8.78327E-06-1.06406E-06-1.97097E-06
 -1      1754-3.83312E-05 1.24963E-04-3.69871E-05 9.67939E-06-3.48218E-06-1.24119E-06
 -1      1755-3.79619E-05 1.26929E-04-3.30107E-05 9.10067E-06-1.90523E-06-6.81937E-07
 -1      1756-4.01127E-05 1.32018E-04-3.92565E-05 8.49162E-06-3.59971E-06-4.77131E-07
 -1      1757-3.90225E-05 1.28287E-04-3.83187E-05 8.16023E-06-3.59797E-06-6.06645E-07
 -1      1758-3.93878E-05 1.31137E-04-3.97795E-05 7.88017E-06-2.75151E-06-3.76205E-07
 -1      1759-4.03185E-05 1.34072E-04-4.10503E-05 8.06230E-06-3.93672E-06-1.65187E-07
 -1      1760-4.05599E-05 1.35862E-04-4.14964E-05 7.15808E-06-3.39734E-06-9.06354E-08
 -1      1761-4.01166E-05 1.34690E-04-4.08031E-05 7.90402E-06-2.20839E-06-6.16694E-08
 -1      1762-4.15235E-05 1.38635E-04-4.17288E-05 7.91880E-06-2.13981E-06-4.74895E-08
 -1      1763-4.05920E-05 1.37035E-04-4.19018E-05 6.70998E-06-3.22379E-06-5.37822E-08
 -1      1764-4.20932E-05 1.41054E-04-4.26805E-05 7.00780E-06-3.14317E-06-3.47665E-09
 -1      1765-4.27606E-05 1.42441E-04-4.28336E-05 7.98918E-06-1.93680E-06-8.30528E-08
 -1      1766-4.38779E-05 1.46294E-04-4.38901E-05 8.36975E-06-1.88392E-06-8.40886E-08
 -1      1767-4.30832E-05 1.43721E-04-4.32444E-05 7.11654E-06-3.14284E-06-2.77674E-08
 -1      1768-4.38373E-05 1.46265E-04-4.39233E-05 6.80686E-06-3.05027E-06 4.50515E-08
 -1      1769-4.50247E-05 1.49981E-04-4.49113E-05 8.22545E-06-1.78142E-06 4.96716E-08
 -1      1770-4.60615E-05 1.53447E-04-4.59675E-05 7.99984E-06-1.81019E-06 8.62067E-08
 -1      1771-4.47713E-05 1.49376E-04-4.47877E-05 6.83975E-06-3.08803E-06 5.84193E-08
 -1      1772-4.57054E-05 1.52262E-04-4.57055E-05 6.81606E-06-3.15081E-06 1.01370E-08
 -1      1773-4.72952E-05 1.57187E-04-4.70684E-05 8.07625E-06-1.91381E-06 8.03431E-09
 -1      1774-4.83571E-05 1.60902E-04-4.81260E-05 8.30509E-06-1.59093E-06 7.25205E-08
 -1      1775-4.70907E-05 1.56195E-04-4.65513E-05 6.84276E-06-3.13787E-06 5.60881E-08
 -1      1776-4.73642E-05 1.57942E-04-4.72943E-05 6.83559E-06-3.05106E-06 3.91822E-08
 -1      1777-4.29109E-05 1.43966E-04-4.34552E-05 8.01808E-06-2.03024E-06 1.24080E-07
 -1      1778-4.23552E-05 1.42309E-04-4.29279E-05 8.74733E-06-2.27605E-06 7.74421E-08
 -1      1779-4.15525E-05 1.38710E-04-4.16784E-05 6.91333E-06-3.27298E-06-2.38033E-08
 -1      1780-4.06902E-05 1.36400E-04-4.12728E-05 7.20429E-06-3.38137E-06-5.55006E-08
 -1      1781-4.22692E-05 1.41739E-04-4.27766E-05 8.73721E-06-2.20104E-06 2.48207E-07
 -1      1782-4.19057E-05 1.40957E-04-4.27818E-05 8.25810E-06-1.98163E-06 4.44023E-08
 -1      1783-4.01729E-05 1.34517E-04-4.05834E-05 7.39333E-06-3.36704E-06-2.42434E-08
 -1      1784-3.97551E-05 1.32859E-04-4.00522E-05 7.15376E-06-3.30413E-06 2.61079E-08
 -1      1785-4.13383E-05 1.39635E-04-4.22701E-05 8.68542E-06-2.22388E-06 2.86537E-08
 -1      1786-4.09239E-05 1.36454E-04-4.11752E-05 7.83750E-06-2.11333E-06 2.48883E-07
 -1      1787-3.88705E-05 1.30504E-04-3.95892E-05 6.92999E-06-3.43370E-06 5.74009E-08
 -1      1788-3.85338E-05 1.28416E-04-3.86517E-05 6.79819E-06-3.77150E-06 1.41865E-08
 -1      1789-4.12463E-05 1.37867E-04-4.20830E-05 7.31991E-06-2.64957E-06 5.16063E-07
 -1      1790-3.85889E-05 1.32020E-04-3.97269E-05 7.49362E-06-3.87179E-06 7.83004E-07
 -1      1791-3.80384E-05 1.26855E-04-3.78080E-05 6.57819E-06-3.85160E-06 3.62517E-07
 -1      1792-3.71730E-05 1.23300E-04-3.57630E-05 5.98872E-06-4.67295E-06 1.36696E-06
 -1      1793-3.87248E-05 1.30396E-04-3.79192E-05 6.02843E-06-7.13926E-06 1.97172E-06
 -1      1794-4.16241E-05 1.37373E-04-3.82212E-05 3.21273E-06-1.39449E-05 3.80157E-06
 -1      1795-3.69337E-05 1.18729E-04-3.15057E-05 7.08550E-06-7.48791E-06 2.30256E-06
 -1      1796-3.78537E-05 1.12753E-04-2.50100E-05 8.03601E-06-1.32160E-05 5.28477E-06
 -1      1797-4.35963E-05 1.45641E-04-4.06184E-05-2.26415E-06-2.44999E-05 7.94650E-06
 -1      1798-4.55502E-05 1.54994E-04-4.70217E-05-1.23707E-05-3.12773E-05 1.08266E-05
 -1      1799-3.92664E-05 1.02164E-04-1.76673E-05 8.34208E-06-2.51125E-05 1.04501E-05
 -1      1800-4.00196E-05 9.98414E-05-2.33561E-05 9.30351E-06-3.83095E-05 1.86158E-05
 -1      1801-5.56656E-05 1.76235E-04-5.75551E-05-1.86498E-05-1.50065E-05-1.21045E-05
 -1      1802-3.46249E-05 1.45468E-04-6.28915E-05-7.55623E-06-2.35931E-05-8.13495E-06
 -1      1803-4.95089E-05 1.64581E-04-4.91271E-05 7.84974E-06-1.77614E-06 4.20390E-08
 -1      1804-5.15960E-05 1.70314E-04-5.05918E-05 7.75755E-06-1.86999E-06-1.10317E-07
 -1      1805-4.83548E-05 1.60888E-04-4.80801E-05 6.91413E-06-3.09553E-06 1.34392E-08
 -1      1806-5.03813E-05 1.66052E-04-4.92799E-05 6.62231E-06-3.09056E-06 6.93502E-08
 -1      1807-5.16591E-05 1.71742E-04-5.13864E-05 8.35572E-06-1.41558E-06 1.98996E-07
 -1      1808-5.27265E-05 1.75523E-04-5.24060E-05 7.46847E-06-1.56993E-06 1.13520E-07
 -1      1809-5.00140E-05 1.66810E-04-4.98840E-05 6.88641E-06-3.02165E-06 4.10804E-08
 -1      1810-5.08349E-05 1.69225E-04-5.05589E-05 6.68182E-06-3.06701E-06-1.29319E-08
 -1      1811-5.56021E-05 1.83715E-04-5.44889E-05 7.17153E-06-1.72320E-06 2.83945E-07
 -1      1812-5.48157E-05 1.82106E-04-5.40809E-05 7.70597E-06-1.65574E-06 6.97272E-07
 -1      1813-5.22628E-05 1.72818E-04-5.14923E-05 6.35438E-06-2.98751E-06 2.76267E-07
 -1      1814-5.30187E-05 1.75421E-04-5.22954E-05 6.61206E-06-2.77691E-06 3.47217E-07
 -1      1815-5.77123E-05 1.91271E-04-5.69233E-05 6.93805E-06-1.83857E-06 2.82880E-07
 -1      1816-5.74275E-05 1.88675E-04-5.56822E-05 7.77909E-06-2.26237E-06 1.01127E-06
 -1      1817-5.38459E-05 1.77974E-04-5.25942E-05 6.62674E-06-2.97206E-06 5.27063E-07
 -1      1818-5.50733E-05 1.80511E-04-5.19872E-05 6.31113E-06-2.71260E-06 1.30274E-06
 -1      1819-5.84540E-05 1.91359E-04-5.49231E-05 5.42664E-06-3.82484E-06 2.24734E-06
 -1      1820-6.01341E-05 1.96278E-04-5.56699E-05 3.47178E-06-7.64555E-06 3.82193E-06
 -1      1821-5.61191E-05 1.81245E-04-4.99032E-05 6.44416E-06-3.48488E-06 2.54385E-06
 -1      1822-5.78274E-05 1.77527E-04-4.40137E-05 6.50694E-06-5.23113E-06 4.61892E-06
 -1      1823-6.08084E-05 1.97556E-04-5.50543E-05 4.27864E-07-1.24706E-05 8.45244E-06
 -1      1824-5.64748E-05 1.96441E-04-5.53058E-05-5.47028E-06-1.43340E-05 8.39137E-06
 -1      1825-6.00308E-05 1.74063E-04-3.83084E-05 5.88063E-06-6.68575E-06 8.34292E-06
 -1      1826-5.72080E-05 1.68738E-04-4.17895E-05 3.72006E-06-7.06356E-06 9.56312E-06
 -1      1827-5.82540E-05 1.89768E-04-6.68178E-05-8.05599E-06-5.91287E-06-8.03002E-06
 -1      1828-3.97720E-05 1.64388E-04-7.10632E-05-1.48122E-05-1.40528E-06-1.26306E-05
 -1      1829-2.79743E-05 1.41950E-04-2.00259E-05 1.32360E-05-9.12049E-06 8.44530E-08
 -1      1830-3.16775E-05 1.57664E-04-3.00336E-05 1.13711E-05-1.97290E-05 3.37960E-07
 -1      1831-5.19523E-05 1.70444E-04-4.23552E-05 8.56576E-06-4.46141E-06 6.04791E-07
 -1      1832-5.24027E-05 1.70001E-04-4.88153E-05 6.80799E-06-2.61354E-06 5.23169E-07
 -1      1833-5.18559E-05 1.74103E-04-4.80125E-05 7.03513E-06-3.80319E-06 1.06672E-06
 -1      1834-5.28033E-05 1.72510E-04-5.05484E-05 6.87633E-06-3.18436E-07 6.03091E-07
 -1      1835-5.00704E-05 1.65443E-04-4.95062E-05 7.00929E-06-2.45675E-06 1.56631E-07
 -1      1836-4.84649E-05 1.61545E-04-4.86761E-05 7.04574E-06-2.58759E-06 7.78255E-08
 -1      1837-5.06211E-05 1.67252E-04-5.01570E-05 7.42150E-06-7.47054E-07 5.32826E-07
 -1      1838-4.92648E-05 1.64494E-04-4.94564E-05 7.80037E-06-1.03588E-06 4.43495E-07
 -1      1839-4.81102E-05 1.59536E-04-4.79129E-05 6.85438E-06-2.54824E-06 9.21707E-08
 -1      1840-4.64305E-05 1.54875E-04-4.65968E-05 6.99392E-06-3.00296E-06 6.34519E-08
 -1      1841-4.81497E-05 1.60067E-04-4.80328E-05 8.49718E-06-1.48701E-06 2.60782E-07
 -1      1842-4.70111E-05 1.56877E-04-4.72700E-05 7.99104E-06-1.85297E-06 1.06252E-07
 -1      1843-4.55501E-05 1.52006E-04-4.56543E-05 7.07528E-06-3.07959E-06 4.08178E-08
 -1      1844-4.46939E-05 1.48971E-04-4.47057E-05 6.87239E-06-3.11625E-06 1.20309E-08
 -1      1845-4.58054E-05 1.53103E-04-4.60313E-05 7.93988E-06-1.87437E-06 1.54140E-07
 -1      1846-4.49339E-05 1.49574E-04-4.48737E-05 7.41939E-06-1.79137E-06 9.01259E-08
 -1      1847-4.39035E-05 1.46153E-04-4.38586E-05 6.84149E-06-3.08268E-06-3.22539E-08
 -1      1848-4.29560E-05 1.43325E-04-4.29717E-05 6.79649E-06-3.15709E-06 8.74786E-10
 -1      1849-4.36715E-05 1.45580E-04-4.36794E-05 8.11331E-06-1.76641E-06-3.08386E-08
 -1      1850-4.25366E-05 1.42016E-04-4.26942E-05 7.91162E-06-1.81984E-06-7.38240E-08
 -1      1851-4.14950E-05 1.39273E-04-4.21041E-05 6.77465E-06-3.16608E-06-1.82963E-08
 -1      1852-4.12439E-05 1.37558E-04-4.13791E-05 6.82740E-06-3.08034E-06-1.80699E-08
 -1      1853-4.07774E-05 1.36531E-04-4.10920E-05 7.38756E-06-1.79664E-06 8.58555E-08
 -1      1854-4.02549E-05 1.34647E-04-4.05159E-05 8.25951E-06-1.63432E-06-7.63331E-09
 -1      1855-2.15967E-05 1.11310E-04-1.61573E-05 2.62185E-06-7.30748E-06-9.48110E-08
 -1      1856-2.27128E-05 1.18898E-04-2.28983E-05-1.71162E-06-1.52360E-05-1.36868E-07
 -1      1857-3.96490E-05 1.33242E-04-3.43891E-05 8.89593E-06-4.59537E-06 7.64697E-07
 -1      1858-4.19359E-05 1.37918E-04-4.09516E-05 8.36903E-06-2.98862E-06 5.84854E-07
 -1      1859-4.14793E-05 1.40668E-04-3.98193E-05 8.05065E-06-3.61020E-06 2.08004E-06
 -1      1860-4.26693E-05 1.40969E-04-4.21105E-05 8.43691E-06-1.16980E-06 1.20126E-06
 -1      1861-4.16277E-05 1.38885E-04-4.25353E-05 7.92223E-06-2.72298E-06 2.76945E-07
 -1      1862-4.16933E-05 1.39671E-04-4.27034E-05 7.24436E-06-2.91923E-06 8.38619E-08
 -1      1863-4.26772E-05 1.41662E-04-4.29621E-05 8.08372E-06-9.20735E-07 4.75961E-07
 -1      1864-4.29302E-05 1.43270E-04-4.31873E-05 8.18648E-06-1.55158E-06 3.53469E-07
 -1      1865-4.17667E-05 1.40159E-04-4.26496E-05 6.74904E-06-3.22657E-06 2.58964E-08
 -1      1866-4.27771E-05 1.43004E-04-4.31769E-05 6.98609E-06-3.22887E-06 7.04807E-08
 -1      1867-4.29268E-05 1.43605E-04-4.33385E-05 7.93533E-06-2.10353E-06 2.21232E-07
 -1      1868-4.33301E-05 1.44875E-04-4.36606E-05 7.97343E-06-2.19581E-06 2.37896E-08
 -1      1869-4.34075E-05 1.44810E-04-4.35662E-05 7.13963E-06-3.32845E-06 8.51655E-09
 -1      1870-4.39195E-05 1.46558E-04-4.40099E-05 6.70705E-06-3.37809E-06-5.86920E-09
 -1      1871-4.38118E-05 1.46277E-04-4.39459E-05 8.14027E-06-2.32421E-06 8.05630E-08
 -1      1872-4.39415E-05 1.46942E-04-4.41738E-05 7.43299E-06-2.48812E-06 7.81534E-08
 -1      1873-4.45914E-05 1.48848E-04-4.46510E-05 6.85763E-06-3.38091E-06-5.49638E-09
 -1      1874-4.52542E-05 1.50752E-04-4.52009E-05 6.86274E-06-3.35222E-06 1.77008E-09
 -1      1875-4.44049E-05 1.48120E-04-4.44919E-05 8.23025E-06-2.31808E-06-3.24362E-08
 -1      1876-4.47648E-05 1.49091E-04-4.46651E-05 8.21602E-06-2.20972E-06-7.09720E-08
 -1      1877-4.63920E-05 1.53800E-04-4.58023E-05 6.74995E-06-3.35237E-06-3.33233E-08
 -1      1878-4.64799E-05 1.54832E-04-4.63321E-05 6.79405E-06-3.50383E-06-3.24189E-09
 -1      1879-4.54380E-05 1.50739E-04-4.50757E-05 7.90035E-06-2.24850E-06 5.72018E-08
 -1      1880-4.54066E-05 1.50970E-04-4.50351E-05 8.44214E-06-2.31408E-06-2.25677E-08
 -1      1881-4.03765E-05 1.34709E-04-4.05836E-05 6.95063E-06-3.08198E-06-7.62028E-09
 -1      1882-3.83765E-05 1.29703E-04-3.94826E-05 6.67007E-06-3.02654E-06-1.07714E-07
 -1      1883-3.93252E-05 1.31134E-04-3.96145E-05 8.00034E-06-1.86872E-06 1.47014E-08
 -1      1884-3.76630E-05 1.27465E-04-3.85549E-05 8.50917E-06-1.70873E-06-1.51802E-07
 -1      1885-3.84720E-05 1.28729E-04-3.88427E-05 6.81282E-06-2.92032E-06-6.91831E-08
 -1      1886-3.77829E-05 1.26268E-04-3.82095E-05 6.81190E-06-3.19235E-06 7.61831E-08
 -1      1887-3.70142E-05 1.23200E-04-3.72348E-05 8.72092E-06-1.72320E-06-3.44665E-07
 -1      1888-3.62351E-05 1.21254E-04-3.65464E-05 7.82923E-06-1.92505E-06-1.69640E-07
 -1      1889-3.66732E-05 1.22890E-04-3.73015E-05 6.41958E-06-3.04305E-06 7.44614E-09
 -1      1890-3.58422E-05 1.19901E-04-3.61757E-05 6.87273E-06-3.17798E-06 8.91633E-08
 -1      1891-3.45573E-05 1.16406E-04-3.52210E-05 9.07067E-06-1.95554E-06-5.02910E-07
 -1      1892-3.36900E-05 1.13066E-04-3.44850E-05 8.21782E-06-2.12235E-06-2.40733E-07
 -1      1893-3.54088E-05 1.17890E-04-3.51128E-05 7.09581E-06-3.61538E-06 4.82902E-07
 -1      1894-3.39633E-05 1.12200E-04-3.25311E-05 7.31249E-06-3.05097E-06 7.37072E-07
 -1      1895-3.27975E-05 1.10618E-04-3.33423E-05 8.32446E-06-2.14025E-06 2.55330E-07
 -1      1896-3.14147E-05 1.04902E-04-3.08942E-05 1.00772E-05-8.24092E-07 2.60109E-07
 -1      1897-3.41817E-05 1.06722E-04-2.72652E-05 8.41499E-06-2.68509E-06 1.83822E-06
 -1      1898-3.54180E-05 9.67606E-05-1.78651E-05 1.14543E-05-1.71910E-06 3.24871E-06
 -1      1899-3.20012E-05 1.00535E-04-2.82604E-05 9.74437E-06 1.54932E-06 5.10313E-08
 -1      1900-3.19486E-05 9.37924E-05-2.22256E-05 1.14321E-05 7.09399E-06 1.92182E-07
 -1      1901-3.94151E-05 7.97220E-05-1.08519E-06 1.78684E-05-6.15963E-07 4.10273E-06
 -1      1902-4.84111E-05 5.83111E-05 1.56396E-05 3.53808E-05-1.83028E-06 6.35339E-06
 -1      1903-3.87487E-05 9.26406E-05-1.48910E-05 1.52786E-05 2.03582E-05-2.78470E-06
 -1      1904-5.11951E-05 1.03445E-04-1.21228E-05 1.57501E-05 3.37155E-05-1.41665E-05
 -1      1905-3.07247E-05 8.56798E-05-4.51401E-05 3.48654E-05-8.44339E-06 4.14443E-06
 -1      1906-2.04029E-05 1.15619E-04-5.78382E-05-3.52627E-07 3.79505E-05-6.56595E-06
 -1      1907-4.72776E-05 1.56943E-04-4.70020E-05 6.85319E-06-3.28645E-06 1.30601E-08
 -1      1908-4.80838E-05 1.59176E-04-4.74729E-05 7.20909E-06-3.35154E-06-1.69844E-09
 -1      1909-4.57120E-05 1.51910E-04-4.51966E-05 7.90433E-06-2.10102E-06-1.86925E-07
 -1      1910-4.73819E-05 1.56116E-04-4.65266E-05 8.09514E-06-2.31258E-06-5.16389E-08
 -1      1911-4.83773E-05 1.61013E-04-4.81896E-05 7.30666E-06-3.37298E-06 2.29738E-08
 -1      1912-4.88690E-05 1.62804E-04-4.87181E-05 7.16900E-06-3.30613E-06 4.65107E-08
 -1      1913-4.64130E-05 1.53606E-04-4.57594E-05 8.87640E-06-2.21349E-06-3.60025E-07
 -1      1914-4.64937E-05 1.54608E-04-4.59103E-05 8.16567E-06-2.03202E-06-6.02306E-08
 -1      1915-4.99313E-05 1.65365E-04-4.92702E-05 7.05742E-06-3.46683E-06 2.02780E-07
 -1      1916-5.04169E-05 1.67640E-04-5.00308E-05 6.97651E-06-3.49795E-06 3.68828E-07
 -1      1917-4.71648E-05 1.55732E-04-4.64878E-05 9.14513E-06-2.48824E-06 3.52158E-08
 -1      1918-4.80581E-05 1.59560E-04-4.75050E-05 8.41767E-06-2.25523E-06-3.07621E-08
 -1      1919-5.14541E-05 1.69084E-04-4.98305E-05 7.33697E-06-2.88245E-06 6.22080E-07
 -1      1920-5.24116E-05 1.70857E-04-4.89349E-05 7.04612E-06-2.14273E-06 9.91328E-07
 -1      1921-4.84375E-05 1.59625E-04-4.67847E-05 7.76456E-06-1.62699E-06 4.49006E-07
 -1      1922-5.13778E-05 1.67121E-04-4.85687E-05 8.79822E-06-1.50505E-06 3.13728E-07
 -1      1923-5.35646E-05 1.70656E-04-4.66175E-05 8.26228E-06-4.77493E-07 2.18149E-06
 -1      1924-5.60912E-05 1.68943E-04-4.01541E-05 9.48162E-06 2.88317E-06 3.45068E-06
 -1      1925-5.00102E-05 1.61053E-04-4.57612E-05 9.81581E-06 1.44586E-06 1.22748E-07
 -1      1926-5.65101E-05 1.74261E-04-4.64652E-05 8.69284E-06 8.04176E-06 3.01799E-07
 -1      1927-5.94538E-05 1.64743E-04-3.22553E-05 9.26546E-06 6.92047E-06 3.41359E-06
 -1      1928-6.20072E-05 1.60163E-04-3.16886E-05 9.94727E-06 9.51242E-06 2.22106E-06
 -1      1929-6.09131E-05 1.71297E-04-4.05577E-05 1.02492E-05 1.50737E-05-1.60095E-06
 -1      1930-6.59188E-05 1.87335E-04-4.40474E-05 2.44131E-06 2.41940E-05-5.58827E-06
 -1      1931-3.82157E-05 1.62112E-04-7.31657E-05-8.95815E-06 5.83082E-06-5.75726E-06
 -1      1932-4.72892E-05 1.80958E-04-6.72654E-05-1.88711E-05 1.53932E-05-3.79955E-07
 -1      1933-6.99281E-05 2.00279E-04-4.85894E-05 4.75253E-06 1.58700E-05-6.95568E-08
 -1      1934-5.63400E-05 1.89132E-04-5.73003E-05 4.08527E-06-1.14248E-06-2.70929E-07
 -1      1935-3.78584E-05 1.27312E-04-3.90613E-05 4.58800E-06-2.98678E-06-2.18801E-07
 -1      1936-5.91783E-05 1.95385E-04-5.80125E-05 4.93638E-06-3.40863E-06 2.93781E-07
 -1      1937-4.99054E-05 1.64522E-04-4.87861E-05 4.79952E-06-3.02991E-06-6.06684E-08
 -1      1938-2.36620E-05 8.21217E-05-2.47113E-05 5.86323E-06-4.41561E-06-4.74279E-07
 -1      1939-3.86617E-05 1.83025E-04-8.25806E-05 6.33636E-07 8.46810E-06-7.21655E-06
 -1      1940-6.75325E-05 2.22437E-04-6.53682E-05 4.90429E-06-3.05968E-07 9.60018E-07
 -1      1941-4.54117E-05 1.51179E-04-4.51044E-05 5.55091E-06-1.80540E-06-5.95650E-09
 -1      1942-4.94720E-05 1.65871E-04-5.03176E-05 5.34737E-06-6.69109E-07-8.46387E-08
 -1      1943-5.58516E-05 1.83633E-04-5.46456E-05 4.74758E-06-2.82891E-06 1.43470E-07
 -1      1944-4.18774E-05 1.40139E-04-4.22084E-05 5.09428E-06-3.23000E-06-6.44336E-08
 -1      1945-5.73706E-05 1.86127E-04-5.50658E-05 2.79780E-06-3.43925E-06 6.31439E-08
 -1      1946-6.39148E-05 2.54369E-04-9.94060E-05-1.55423E-05 2.15959E-05 1.20283E-06
 -1      1947-3.69428E-05 1.25809E-04-3.87882E-05 4.44289E-06-3.41354E-06-3.38707E-07
 -1      1948-7.36673E-05 2.27258E-04-5.85619E-05 5.01743E-06-4.41970E-07 2.18079E-06
 -1      1949-7.48499E-05 2.29740E-04-8.11696E-05-1.65782E-05-1.92275E-05-1.13025E-05
 -1      1950-6.18989E-05 2.06613E-04-6.17867E-05 7.15749E-06-2.60748E-06 4.06996E-07
 -1      1951-4.05155E-05 1.36413E-04-4.13274E-05 4.82960E-06-1.44878E-06-1.57601E-07
 -1      1952-3.94076E-05 1.31739E-04-3.98894E-05 5.57915E-06-1.51081E-06 2.96596E-07
 -1      1953-3.25929E-05 1.13179E-04-3.50788E-05 4.76594E-06-1.98490E-06 1.99282E-08
 -1      1954-3.45326E-05 1.62117E-04-1.96007E-05 2.50886E-05 1.18206E-05 3.05257E-06
 -1      1955-4.76285E-05 1.58624E-04-4.73299E-05 4.43200E-06-1.13667E-06-9.91927E-08
 -1      1956-1.30507E-05 9.63135E-05-1.56183E-05-8.16713E-06 2.35455E-05 3.05087E-06
 -1      1957-1.79203E-05 8.51587E-05-1.13124E-05-6.06261E-06 5.07490E-06 2.88221E-07
 -1      1958-2.18925E-05 8.31175E-05-2.04866E-05-4.92309E-06 8.54532E-06 2.50976E-06
 -1      1959-1.50760E-05 1.15447E-04-1.94919E-05-1.45417E-05-2.96096E-05-3.25040E-06
 -1      1960-4.30642E-05 1.65493E-04-2.10811E-05 1.82153E-05-5.56004E-06 3.13816E-07
 -1      1961-2.48372E-05 1.02704E-04-2.21207E-05-7.98023E-06-1.50407E-05-2.44278E-06
 -1      1962-1.53685E-05 7.60762E-05-1.88819E-05 3.26450E-06 1.06878E-05 8.94891E-06
 -1      1963-2.94787E-05 1.00231E-04-3.07383E-05 5.15851E-06-3.53574E-06-2.61954E-07
 -1      1964-5.17322E-05 1.69011E-04-5.04791E-05 4.83670E-06-4.42328E-06 2.70806E-07
 -1      1965-1.53966E-05 8.48034E-05-8.85891E-06-7.21658E-06 1.08747E-06-7.71326E-07
 -1      1966-2.46178E-05 9.17065E-05-1.43897E-05-7.16403E-06-1.12091E-05 7.45449E-07
 -1      1967-1.56709E-05 7.28055E-05-7.75503E-06-1.36352E-05 6.43146E-07 5.46186E-07
 -1      1968-5.12212E-05 1.69857E-04-5.03568E-05 5.14646E-06-3.08461E-06 2.60003E-07
 -1      1969-2.30448E-05 1.26734E-04-3.46011E-05 5.87293E-06 1.34813E-05-3.66198E-06
 -1      1970-1.45357E-05 1.14761E-04-1.37970E-05 9.39818E-06 9.84897E-06 9.48012E-07
 -1      1971-4.71385E-05 1.68247E-04-3.02465E-05 1.76355E-05 1.88052E-05-2.73748E-07
 -1      1972-5.87933E-05 1.82235E-04-4.30299E-05 4.86885E-06-2.13491E-06 5.27085E-08
 -1      1973-2.12441E-05 7.67776E-05-2.41439E-05 5.20264E-06-2.02120E-06 3.97941E-07
 -1      1974-4.16682E-05 1.64645E-04-2.10554E-05 2.05005E-05-1.45788E-05 2.51535E-06
 -1      1975-2.79989E-05 9.75166E-05-3.00910E-05 4.41677E-06-1.50240E-06-6.60738E-08
 -1      1976-2.56111E-05 9.02396E-05-2.81392E-05 6.00114E-06-3.88937E-06 1.18926E-07
 -1      1977-3.41276E-05 1.16089E-04-3.61448E-05 6.61319E-06-4.90855E-06-3.56035E-07
 -1      1978-2.50297E-05 8.95072E-05-2.78768E-05 6.05785E-06-2.02018E-06-1.85532E-06
 -1      1979-7.85905E-05 2.54405E-04-9.29322E-05-3.90135E-06-2.51143E-05-4.51642E-06
 -1      1980-6.66508E-05 2.23979E-04-6.98397E-05-1.63256E-05-1.52659E-05-7.16451E-06
 -1      1981-1.09356E-04 3.12620E-04-8.27875E-05-6.23690E-05-4.94874E-05-6.97586E-06
 -1      1982-1.94067E-05 7.60568E-05-2.29929E-05 5.50734E-06-8.60960E-07-1.74812E-07
 -1      1983-2.64898E-05 8.74599E-05-2.21880E-05 4.54314E-06-9.21809E-06 2.30969E-06
 -1      1984 1.44090E-04-3.61496E-05-1.41285E-04 1.63858E-07 5.83518E-05 2.52593E-05
 -1      1985-4.07886E-05 1.57479E-04-6.58879E-05-1.56927E-05-2.35454E-05-2.21837E-05
 -1      1986-3.04471E-05 1.62067E-04-7.50184E-05-1.79588E-05 1.17198E-05-1.79404E-06
 -1      1987-4.62290E-05 1.53167E-04-4.59172E-05 5.97082E-06-2.78553E-06 2.69776E-07
 -1      1988 5.64519E-07-5.47724E-05-3.34870E-05 8.49248E-05-3.15865E-04 6.80960E-06
 -1      1989-1.77719E-05-1.10718E-04 1.81805E-05 1.56054E-04-4.70576E-05 1.57762E-05
 -1      1990 3.69399E-04-5.93190E-04-1.72210E-04 5.02142E-04 4.66849E-04 3.69797E-06
 -1      1991-3.83450E-05 1.26377E-04-3.85490E-05 4.39591E-06-1.59090E-06-1.48103E-07
 -1      1992-1.86737E-05 4.56882E-05-1.83180E-06 9.40191E-06-6.52131E-06 2.30006E-06
 -1      1993-4.54128E-05 1.50590E-04-4.51186E-05 4.84377E-06-3.21392E-06-6.13781E-08
 -1      1994-1.02377E-04 3.14987E-04-9.41544E-05 2.68579E-05 3.10258E-05-4.64077E-06
 -1      1995-6.88117E-05 2.19988E-04-7.44646E-05-1.75109E-05-1.19408E-05-1.34123E-05
 -1      1996-4.21202E-05 1.41166E-04-4.25850E-05 5.23459E-06-3.60735E-06 1.35110E-08
 -1      1997-7.11291E-05 2.41111E-04-1.00724E-04 2.61142E-05 1.43340E-05-1.28145E-05
 -1      1998-4.61332E-05 2.31731E-04-8.87566E-05-2.90380E-05 2.76966E-05 8.42725E-06
 -1      1999-4.25891E-05 1.41954E-04-4.24964E-05 5.05640E-06-2.96603E-06-1.36082E-07
 -1      2000-4.68338E-05 1.55719E-04-4.67050E-05 5.17998E-06-3.08784E-06 5.05154E-08
 -1      2001-1.76938E-05 1.81438E-04-7.06841E-05-3.43254E-05 2.57527E-05 9.26144E-06
 -1      2002-4.13920E-05 1.39118E-04-4.19421E-05 6.42005E-06-2.62092E-06-2.22470E-07
 -1      2003-4.22627E-05 1.60342E-04-6.93294E-05-1.61105E-05 4.23710E-06-2.41475E-05
 -1      2004-5.11158E-05 1.45768E-04-5.42656E-05-1.15674E-05-1.65415E-05 3.77817E-06
 -1      2005-2.08684E-05 2.38648E-05 1.23493E-05 2.49732E-05 6.11148E-05-1.28389E-05
 -1      2006-1.26084E-05 4.73047E-05-1.30129E-05 5.89409E-06 4.21687E-06 2.38517E-07
 -1      2007-4.11666E-05 1.45867E-04-4.46634E-05-2.72512E-06-8.43612E-06 3.98211E-06
 -1      2008-6.23970E-05 2.05851E-04-5.91809E-05 5.09634E-06 2.13438E-06 5.51951E-07
 -1      2009-1.87202E-05 5.61722E-05-1.98682E-05 6.95197E-06-7.01620E-05 1.90761E-05
 -1      2010-3.66608E-05 1.33541E-04-4.42363E-05-1.14124E-05-4.91968E-05 4.98493E-06
 -1      2011-3.19799E-05 1.29629E-04-2.38908E-05 3.82406E-06-1.46257E-05 6.67956E-07
 -1      2012-3.88697E-05 1.31058E-04-3.96252E-05 5.80948E-06-1.88230E-06-4.58709E-07
 -1      2013-3.67397E-05 1.75379E-04-8.16589E-05-1.35811E-05 5.82691E-06-5.67101E-07
 -1      2014-3.25338E-05 1.11881E-04-3.31285E-05 6.01125E-06-2.48352E-06 1.56469E-06
 -1      2015-2.21918E-05 8.54411E-05-1.71335E-05-1.69002E-06 8.22155E-07-5.52523E-07
 -1      2016-3.46975E-05 2.19322E-04-9.62427E-05-3.22365E-05 3.12437E-05 1.67728E-05
 -1      2017-2.92589E-05 1.21492E-04-2.13029E-05 5.90867E-06-2.12783E-06-6.00479E-07
 -1      2018-3.63627E-06 7.76103E-05-6.43913E-05 2.86002E-05-1.08205E-04 1.50706E-05
 -1      2019-3.35106E-05 1.13929E-04-2.99756E-05 7.65115E-06-5.18611E-06 5.07848E-07
 -1      2020-2.13755E-05 9.00024E-05-1.41835E-05-3.88125E-06-2.67313E-06 9.79695E-07
 -1      2021-8.08220E-05 2.46904E-04-6.40827E-05 2.68110E-07 2.82698E-05-3.47987E-06
 -1      2022-5.19984E-05 1.67898E-04-4.61352E-05 2.05109E-06 6.65147E-06-3.72594E-06
 -1      2023-2.78016E-05 1.40968E-04-3.84090E-05 2.95231E-06-1.87648E-05-1.44495E-06
 -1      2024-6.37710E-05 2.02310E-04-5.58885E-05 5.85009E-06 4.45472E-07 1.55723E-06
 -1      2025-1.93218E-05 1.53240E-04-3.07903E-05 7.88250E-06-3.27917E-05-2.65567E-06
 -1      2026-2.50892E-05 2.19886E-04-2.99255E-05 4.23008E-05-5.23619E-05-4.68315E-06
 -1      2027-5.58296E-05 1.82283E-04-5.42917E-05 4.53172E-06 1.83016E-07 5.72305E-08
 -1      2028-6.10081E-05 1.96656E-04-5.72804E-05 5.43011E-06-3.52241E-06 3.07097E-07
 -1      2029-5.87404E-05 1.93047E-04-5.30925E-05 3.65881E-06-3.81278E-06 3.53058E-07
 -1      2030-5.12032E-05 1.89951E-04-3.97653E-05 1.61513E-05-2.09959E-05 2.71592E-06
 -1      2031-5.41142E-05 1.78751E-04-5.24317E-05 4.20517E-06-3.21302E-06-3.90112E-07
 -1      2032-2.48986E-05 1.72298E-04-3.28493E-05 1.24733E-05-3.59512E-05 4.92863E-06
 -1      2033-5.43622E-05 1.79867E-04-5.34095E-05 5.02395E-06-1.18089E-06-5.44241E-07
 -1      2034-4.80987E-05 1.59221E-04-4.76886E-05 4.62561E-06-1.13188E-06-5.05302E-08
 -1      2035-5.39324E-05 1.77031E-04-5.26686E-05 4.57163E-06-3.64064E-06-3.71285E-08
 -1      2036-3.41949E-05 1.15502E-04-3.54348E-05 4.94730E-06-1.39612E-06 6.30433E-07
 -1      2037-6.11615E-05 2.01265E-04-5.83359E-05 5.68934E-06-2.71740E-06 2.39259E-06
 -1      2038-4.87595E-05 1.62592E-04-4.90032E-05 6.28203E-06-1.84284E-06-2.02003E-07
 -1      2039-4.31983E-05 1.44095E-04-4.33718E-05 5.58588E-06-1.70818E-06 3.82548E-08
 -1      2040-6.04166E-05 1.94468E-04-5.71329E-05 7.56972E-06-2.81566E-06 7.19697E-07
 -1      2041-4.10952E-05 1.36924E-04-4.13622E-05 4.56782E-06-1.15459E-06-6.07394E-09
 -1      2042-3.76888E-05 1.25958E-04-3.80935E-05 5.17471E-06-1.40699E-06 4.60392E-07
 -1      2043-5.45098E-05 1.78256E-04-5.29553E-05 3.90801E-06-3.85726E-06 8.51415E-08
 -1      2044-3.20541E-05 1.68942E-04-1.86418E-05 3.15920E-05 2.07795E-05-5.51441E-06
 -1      2045-5.45491E-05 1.79620E-04-5.29164E-05 5.75836E-06-2.98674E-06 3.17068E-07
 -1      2046-5.08424E-05 1.69319E-04-5.05217E-05 5.17791E-06-1.39376E-06-3.63663E-07
 -1      2047-5.74024E-05 2.23083E-04-7.51790E-05-7.21064E-06 2.19886E-05-9.71574E-08
 -1      2048-3.28318E-05 1.82477E-04-2.03780E-05 3.22461E-05 4.29716E-05 2.41901E-06
 -1      2049-8.13864E-05 2.49499E-04-9.10251E-05-3.51968E-06 1.28980E-05-1.25499E-05
 -1      2050-6.56726E-05 2.09327E-04-5.97489E-05 2.28579E-06-1.38192E-06 1.52909E-06
 -1      2051-6.92741E-05 2.30968E-04-9.04960E-05 1.59317E-05 7.04847E-06-9.97372E-06
 -1      2052-1.42646E-05 1.08859E-04-2.39353E-05-4.21463E-06 2.06901E-05-2.67720E-06
 -1      2053-5.52246E-05 1.75021E-04-4.68222E-05 4.19287E-06-2.10083E-08 1.35428E-06
 -1      2054-5.38986E-05 2.06539E-04-9.77157E-05-3.13747E-06 1.75140E-06-1.32560E-05
 -1      2055-1.93446E-05 1.39947E-04-2.38450E-05 1.15517E-05 3.40353E-05-5.19413E-06
 -1      2056-4.73887E-05 1.58368E-04-4.75970E-05 5.32974E-06-3.57205E-06 2.98664E-07
 -1      2057-4.82940E-05 1.78120E-04-8.53607E-05-3.91930E-06 5.04471E-06-1.84107E-05
 -1      2058-5.03708E-05 1.86572E-04-5.86533E-05-2.12584E-05-2.39735E-05 1.80782E-06
 -1      2059-4.66581E-05 1.54996E-04-4.63597E-05 4.85855E-06-2.87586E-06-4.92799E-08
 -1      2060-7.20590E-05 2.32068E-04-6.63628E-05 4.02730E-06-1.28140E-06 9.35350E-07
 -1      2061-4.64878E-05 1.54374E-04-4.62748E-05 5.24703E-06-3.66167E-06-2.36309E-08
 -1      2062-4.33827E-05 1.45011E-04-4.36175E-05 4.92592E-06-3.15244E-06 1.26493E-07
 -1      2063-7.38816E-05 2.39759E-04-6.45449E-05 9.95672E-08-9.30929E-06 4.99043E-06
 -1      2064-6.24697E-05 2.19687E-04-6.97406E-05 4.11768E-06-9.12287E-06-5.71074E-06
 -1      2065-3.85822E-05 1.31048E-04-3.98574E-05 4.59025E-06-2.97825E-06-1.25393E-07
 -1      2066-8.73006E-05 3.19650E-04-1.12736E-04 2.82947E-05-5.97774E-05 4.55111E-06
 -1      2067-4.23613E-05 1.41181E-04-4.26368E-05 4.88788E-06-3.27487E-06-1.98759E-07
 -1      2068-3.91392E-05 1.29654E-04-3.83971E-05 5.01286E-06-6.01904E-07-5.40765E-08
 -1      2069-3.14073E-05 1.09815E-04-3.38561E-05 2.67152E-06-3.52139E-06 8.75838E-08
 -1      2070-3.42352E-05 1.16059E-04-3.58995E-05 5.56350E-06-2.91604E-06-4.34561E-07
 -1      2071-2.76825E-05 9.98231E-05-3.16301E-05 4.76449E-06-3.66489E-06-2.38451E-07
 -1      2072-3.47564E-05 1.18609E-04-3.60973E-05 4.56205E-06-3.54042E-06 1.44803E-07
 -1      2073-2.81680E-05 9.46653E-05-2.93260E-05 5.34928E-06-4.31041E-06-1.81899E-06
 -1      2074-3.41720E-05 1.17147E-04-3.57478E-05 3.77209E-06-3.71254E-06-6.77690E-08
 -1      2075-3.53278E-05 1.19102E-04-3.61822E-05 4.68624E-06-2.82012E-06-3.51568E-07
 -1      2076-2.41906E-05 8.65189E-05-2.63601E-05 2.53864E-06-8.94021E-06 1.44240E-06
 -1      2077-5.03539E-05 1.69285E-04-4.99608E-05 4.61191E-06-1.78779E-06 1.20572E-07
 -1      2078 1.22305E-05 2.45796E-05-8.86441E-05 7.79899E-05 1.19953E-04-2.38971E-05
 -1      2079-5.18256E-05 1.70886E-04-5.12395E-05 4.58458E-06-3.86578E-06 3.47499E-07
 -3
 9999
